#  HZ   S   DB   R     50.00 
! Rohde & Schwarz Vector Network Analyzer 
! Rohde-Schwarz,ZND-2Port,1328517092102334,3.45
! Created: UTC 3/30/2026, 5:19:58 AM
! freq[Hz]                db:S11                  ang:S11                 db:S21                  ang:S21                 db:S12                  ang:S12                 db:S22                  ang:S22
 1.000000000000000E5    -3.149093719416968E1     1.000425910969818E2     1.841342222421412E-2   -1.294112493925446       2.682854153427744E-2   -1.395337390066229      -3.048430269282805E1     9.185560664982546E1
 4.748750000000000E5    -4.255599108346078E1     7.265049266895473E1    -2.086814704719857E-2   -5.459155460508504E-1   -1.537629090783828E-2   -5.621147035122355E-1   -4.298904545223997E1     6.492954230624802E1
 8.497500000000000E5    -4.692480681687529E1     5.361253910517302E1    -2.691087873609717E-2   -5.404004599052742E-1   -2.038004695500132E-2   -5.438615159211853E-1   -4.607294287648436E1     4.401450120319780E1
 1.224625000000000E6    -4.954109257029670E1     4.699443144165129E1    -2.430188446593754E-2   -6.175682436605955E-1   -1.798269186735229E-2   -6.167046684350657E-1   -4.754106702142525E1     3.396583812001733E1
 1.599500000000000E6    -4.839359906894619E1     4.844240326240324E1    -2.330773673870564E-2   -7.650935190275900E-1   -1.695184860403900E-2   -7.672352915948173E-1   -4.828036903421939E1     3.805207010988097E1
 1.974375000000000E6    -4.970234921902787E1     3.599988751237959E1    -2.666274303275720E-2   -8.540769011225795E-1   -2.166464503760991E-2   -8.587999821312559E-1   -4.843159476977156E1     2.835943579665474E1
 2.349250000000000E6    -5.073754459779059E1     3.400831516887781E1    -2.355322463510558E-2   -9.662410587547156E-1   -1.907299073144402E-2   -9.708181943839417E-1   -4.906885723284645E1     2.352479438965306E1
 2.724125000000000E6    -4.948766775520852E1     3.536876425565271E1    -2.822384660211645E-2   -1.108130329682436      -2.059511202901660E-2   -1.116026175135021      -4.792374186962543E1     2.133840585928465E1
 3.099000000000000E6    -4.877235080499738E1     3.506887017886445E1    -2.823758913659222E-2   -1.250739280865617      -2.211479211423226E-2   -1.257347097889098      -4.797776718579940E1     2.187857003594463E1
 3.473875000000000E6    -4.867774616067211E1     2.928662058188427E1    -3.082004865143376E-2   -1.382912694762086      -2.402541278764142E-2   -1.390546275359134      -4.771759161422285E1     1.896259998963345E1
 3.848750000000000E6    -4.852548104166772E1     2.885679717034401E1    -3.167454714593617E-2   -1.518145480617808      -2.602691934280213E-2   -1.517886812170659      -4.768341477531205E1     1.705272683807746E1
 4.223625000000000E6    -4.792093771052699E1     2.144865727717478E1    -3.444146384908651E-2   -1.644838506414692      -2.826610147189608E-2   -1.646596973729396      -4.697416106143915E1     1.387435893110662E1
 4.598500000000000E6    -4.775542517401963E1     1.658924293046386E1    -3.607124175198249E-2   -1.776742278741358      -3.051328141381020E-2   -1.780138710052157      -4.664583020254278E1     1.236177753716547E1
 4.973375000000000E6    -4.743570929634107E1     1.568540694640658E1    -3.725410528970124E-2   -1.915232695250482      -3.080874210110318E-2   -1.920470674791541      -4.670192246689795E1     1.235051854354281E1
 5.348250000000000E6    -4.723088115456325E1     1.407927720949333E1    -3.876078802564525E-2   -2.042478215795684      -3.255404501946440E-2   -2.050704236102157      -4.653564891121653E1     9.157237468147621
 5.723125000000000E6    -4.695888751930762E1     1.197756488872230E1    -3.928348432170201E-2   -2.186265374338508      -3.378725788984903E-2   -2.191643563367236      -4.639208852434795E1     9.052321499753450
 6.098000000000000E6    -4.669048079713335E1     9.643039715494298      -4.015068449903508E-2   -2.316784037864615      -3.503480239695129E-2   -2.320456027329650      -4.630025354748176E1     7.221167334028197
 6.472875000000000E6    -4.665945913997881E1     8.085479815238445      -4.152984002971156E-2   -2.443170383278393      -3.592463783671855E-2   -2.451359035414565      -4.588710350220638E1     8.090656832180001
 6.847750000000000E6    -4.687997368382059E1     9.196430943486183      -4.200994745099509E-2   -2.580026944120846      -3.618129877345418E-2   -2.582943499301507      -4.584627154433612E1     3.141651812551165
 7.222625000000000E6    -4.674508184428717E1     8.652120622775850      -4.260495366605312E-2   -2.717757097668090      -3.746504278323160E-2   -2.724426532820299      -4.552917370598468E1     4.313339442660253
 7.597500000000000E6    -4.640367778175610E1     8.979805815200985      -4.237042284057047E-2   -2.859068154236394      -3.643868986065041E-2   -2.864890447937880      -4.530740580403793E1     3.216237899264282
 7.972375000000000E6    -4.662074315144443E1     1.005654422258582E1    -4.341499540196628E-2   -2.989157290670750      -3.704314113631235E-2   -2.998262279470434      -4.554083750221704E1     6.372675821057380E-1
 8.347250000000000E6    -4.633203647580983E1     9.302496445410949      -4.440340552362621E-2   -3.133060752227743      -3.867685306398134E-2   -3.141905287154790      -4.538833191086024E1     2.430581846796602
 8.722125000000000E6    -4.639591857812972E1     1.048673616483106E1    -4.338615539374466E-2   -3.271986595804421      -3.881346970422188E-2   -3.278864552732006      -4.521009003527730E1     2.539457496226135E-1
 9.097000000000000E6    -4.639177650582896E1     6.152799976968300      -4.142804052524365E-2   -3.409497129091807      -3.675497647851320E-2   -3.416918875137586      -4.577719867888534E1     4.276206461097308
 9.471875000000000E6    -4.656180477864410E1     9.285888647285491      -4.294202885730571E-2   -3.543693261661912      -3.723628683966630E-2   -3.555958793118557      -4.557966903761920E1     2.996371660845752
 9.846750000000000E6    -4.665808650764053E1     6.006072448733509      -4.110544773075379E-2   -3.684545327334044      -3.680130627477819E-2   -3.693171865931514      -4.577548481984822E1     1.732217164254302
 1.022162500000000E7    -4.749303916762110E1     1.199409530531988E1    -3.846762928757368E-2   -3.827023931503797      -3.363641919862201E-2   -3.836315391959162      -4.672489016303089E1     1.163290863475431
 1.059650000000000E7    -4.703901991213439E1     1.088206878187979E1    -3.936139179066642E-2   -3.969317745973197      -3.425833180027041E-2   -3.976743356876376      -4.700090825143675E1     3.216073215393299
 1.097137500000000E7    -4.716500799613516E1     1.056082319781095E1    -3.902329106423367E-2   -4.102539462619011      -3.488933168578841E-2   -4.113320553760240      -4.686735382047473E1     3.170445712166489
 1.134625000000000E7    -4.714208000865707E1     9.092921954113120      -3.894857528922391E-2   -4.244875637794102      -3.579117968860546E-2   -4.249704868612077      -4.673454217780056E1     4.838135751462188
 1.172112500000000E7    -4.684599659368951E1     1.079268932739959E1    -3.969924585563493E-2   -4.386055349561388      -3.598232403574111E-2   -4.390445411981385      -4.648037736063151E1     5.340966426278892
 1.209600000000000E7    -4.687909859561849E1     1.195915108543021E1    -4.023927394483762E-2   -4.528960333221728      -3.642256160510726E-2   -4.527980905774423      -4.619538122380442E1     3.761956837657797
 1.247087500000000E7    -4.687363226834360E1     1.287974616659566E1    -4.072767463673455E-2   -4.665046641538202      -3.669040013243537E-2   -4.670166983568163      -4.625893356331454E1     3.698590591765306
 1.284575000000000E7    -4.686158228409207E1     1.349681707057809E1    -4.125113157153566E-2   -4.796736055217909      -3.636306577421461E-2   -4.809647616415022      -4.607461064593515E1     2.238561425614818
 1.322062500000000E7    -4.668182291541606E1     1.371923509036159E1    -4.138977759222522E-2   -4.939193351399516      -3.623889349599300E-2   -4.946360925588512      -4.588032355545663E1     1.241945372704073
 1.359550000000000E7    -4.621473320781054E1     1.281217707506303E1    -4.080017011645742E-2   -5.076888033088406      -3.773652306061983E-2   -5.091869738756132      -4.598259760970436E1     2.066069452131972
 1.397037500000000E7    -4.577359090412209E1     1.328098385385555E1    -4.299426171851020E-2   -5.221451810042320      -3.782734134692904E-2   -5.231563619571693      -4.609162905552065E1     1.197308886808091
 1.434525000000000E7    -4.581521254179939E1     1.229061175496686E1    -4.353907735784028E-2   -5.355942133406148      -3.945912666861084E-2   -5.373356907135286      -4.584388886297184E1     2.291171148465642
 1.472012500000000E7    -4.579944378494422E1     1.213184124562755E1    -4.388574831185461E-2   -5.497646740929735      -3.921846654304631E-2   -5.510188979826344      -4.543919396787679E1     2.700050196968376
 1.509500000000000E7    -4.575263167813188E1     1.217494872599743E1    -4.445737975201232E-2   -5.634895710725663      -3.925022545067605E-2   -5.649945879915896      -4.537067270389404E1     3.900461601959373
 1.546987500000000E7    -4.548289479052396E1     1.023976505899450E1    -4.442309636863925E-2   -5.768429015162985      -4.037378971965083E-2   -5.786248165287426      -4.553982070930076E1     4.687383149878833
 1.584475000000000E7    -4.531646623785758E1     1.007339978128623E1    -4.424639438668924E-2   -5.910039005938731      -4.096351699789596E-2   -5.921454212996922      -4.536547766050451E1     4.139181074867011
 1.621962500000000E7    -4.512860640740092E1     9.594250370697033      -4.441837079094697E-2   -6.050615167443310      -4.140361778858688E-2   -6.062114278214307      -4.571265556800360E1     4.381792165834301
 1.659450000000000E7    -4.496544827547419E1     9.226621745165714      -4.487537240539591E-2   -6.190324856935838      -4.154115897227283E-2   -6.201141659046584      -4.546061471056429E1     4.100344053109532
 1.696937500000000E7    -4.456525752361788E1     9.066258582888929      -4.631296850501394E-2   -6.330637918719707      -4.193813489124104E-2   -6.339439245858684      -4.553148717946681E1     2.797358577520788
 1.734425000000000E7    -4.476865221057737E1     9.004134648865838      -4.664279291668114E-2   -6.466508205504254      -4.181195287497632E-2   -6.485025224904618      -4.529855470791204E1     3.254824742696087
 1.771912500000000E7    -4.458494153625109E1     8.664443659465707      -4.713666437847670E-2   -6.605104280702027      -4.268158759905272E-2   -6.621683415065087      -4.521939663877008E1     2.435356146527014
 1.809400000000000E7    -4.456189032285355E1     1.000361738067708E1    -4.702809895924662E-2   -6.745112030753388      -4.295106617438662E-2   -6.758963069848366      -4.501752428217823E1     1.290222154038513
 1.846887500000000E7    -4.456500373495287E1     7.529504202174053      -4.835461351946777E-2   -6.881745106288739      -4.324532256338536E-2   -6.901457939821972      -4.493133033583968E1     2.596941676258771
 1.884375000000000E7    -4.446279173167603E1     6.809691974352145      -4.884091369748349E-2   -7.017616468204888      -4.442951483717988E-2   -7.040361476855758      -4.512625181615868E1     4.238072341335513
 1.921862500000000E7    -4.430607154427807E1     7.292285923366134      -4.936893124651086E-2   -7.153343968159949      -4.495860588251525E-2   -7.174481635980470      -4.477129479768813E1     2.420682511243908
 1.959350000000000E7    -4.402513778815356E1     8.261174753493581      -4.950560630291267E-2   -7.289675450439093      -4.565128094442774E-2   -7.312479644586564      -4.487652358872730E1     1.389076560258302
 1.996837500000000E7    -4.395477943588183E1     7.696015544395329      -4.888826987111129E-2   -7.423091400773378      -4.712342150098193E-2   -7.446169302838351      -4.497649755904801E1     1.119956663510706
 2.034325000000000E7    -4.370664894088877E1     8.047696169384738      -5.032145727705514E-2   -7.566467012286008      -4.735935252645840E-2   -7.587077257525095      -4.484897917327559E1     1.806785228212388
 2.071812500000000E7    -4.364038238272767E1     7.739429291633225      -5.158929312998865E-2   -7.706990908120455      -4.801653916289506E-2   -7.724768273982872      -4.460202284236289E1     1.668807696799604
 2.109300000000000E7    -4.355036055058743E1     7.366670588175498      -5.168891608025340E-2   -7.845734864574567      -4.905817970161418E-2   -7.870777682514785      -4.440745759199280E1     1.968007604181723
 2.146787500000000E7    -4.346039937387041E1     6.715716539607125      -5.212189356812695E-2   -7.986083979972116      -4.954703453817069E-2   -8.005023831900758      -4.434975769924576E1     2.999226764509535
 2.184275000000000E7    -4.341612991240084E1     6.007959354318658      -5.231711332843895E-2   -8.129090754201522      -5.009826582330978E-2   -8.139578852142513      -4.408603485097822E1     3.209618247541489
 2.221762500000000E7    -4.338020847282585E1     5.409203245026404      -5.268585773919843E-2   -8.262330581369662      -5.079889240875726E-2   -8.275733349673219      -4.411869012329088E1     2.775002999741786
 2.259250000000000E7    -4.333628912966955E1     5.024865653034523      -5.255183790729683E-2   -8.393318897648472      -5.140361220890239E-2   -8.415928963640557      -4.413182594149040E1     2.191123066707326
 2.296737500000000E7    -4.320986219874747E1     5.733194440248786      -5.406951141696086E-2   -8.533002268265268      -5.083148739762684E-2   -8.548042023663662      -4.427354835954361E1     1.489757649248930
 2.334225000000000E7    -4.303081946917424E1     5.498831994441582      -5.522304424250586E-2   -8.672335950401948      -5.221005039665350E-2   -8.683736885288596      -4.411787795370849E1     1.738098306552362
 2.371712500000000E7    -4.280160919940714E1     5.477152863169022      -5.505503679579791E-2   -8.812785832409705      -5.390268013193084E-2   -8.825656595562343      -4.410121185204299E1     2.809190325481769
 2.409200000000000E7    -4.259560107399516E1     5.257047636399078      -5.601340558373519E-2   -8.949638861311444      -5.412165002821253E-2   -8.964107756971520      -4.420015568999149E1     1.828525086642862
 2.446687500000000E7    -4.267189623421233E1     5.535457117936850      -5.657246576523132E-2   -9.092957650353286      -5.367103632160063E-2   -9.109176376135183      -4.400892491938835E1     3.004487943451169
 2.484175000000000E7    -4.268166418755550E1     4.201276323434833      -5.530660998703057E-2   -9.235838273640525      -5.349990032179691E-2   -9.254293944036080      -4.387328450908371E1     4.149379086623688
 2.521662500000000E7    -4.276549538444443E1     5.011413402264123      -5.685715777773551E-2   -9.397931800211838      -5.285029080494683E-2   -9.391000397730433      -4.400457206960122E1     5.165719649644730
 2.559150000000000E7    -4.252414090839574E1     5.226842596569068      -5.717417203584017E-2   -9.540150578032561      -5.421557638286367E-2   -9.527287569476746      -4.406303940672924E1     5.036755759434682
 2.596637500000000E7    -4.235627331615800E1     5.711426449090645      -5.733305237744014E-2   -9.676848854885765      -5.359322584152029E-2   -9.666804498438028      -4.430210740166724E1     4.690160313860132
 2.634125000000000E7    -4.252789988461516E1     5.124218365225835      -5.725414718701492E-2   -9.814755325013328      -5.347487080948798E-2   -9.798386827449139      -4.422507455312078E1     4.766637510689624
 2.671612500000000E7    -4.225578198536503E1     4.452975468685685      -5.796124959384620E-2   -9.948163560279735      -5.477973256189933E-2   -9.940813360943888      -4.417822659149645E1     3.395476782577350
 2.709100000000000E7    -4.203875767997729E1     3.928320581672679      -5.828783577954524E-2   -1.009378067987992E1    -5.580430746465862E-2   -1.007923628655607E1    -4.415855438955077E1     3.095416560717889
 2.746587500000000E7    -4.215861901693707E1     4.694023822749029      -5.776192533467271E-2   -1.022485888481418E1    -5.489237557501691E-2   -1.021714641657310E1    -4.423146609051145E1     2.590031140383541
 2.784075000000000E7    -4.218610988180118E1     3.479276763844758      -5.766889600970716E-2   -1.036369455004601E1    -5.505978479814634E-2   -1.035275365211940E1    -4.407394461302778E1     2.766270518223578
 2.821562500000000E7    -4.198848536260748E1     3.256982419121425      -5.969298200222095E-2   -1.050505557922325E1    -5.463886828425329E-2   -1.048742486821916E1    -4.408459477643774E1     2.879915253815006
 2.859050000000000E7    -4.190821564898758E1     1.884920323003818      -5.956903666647685E-2   -1.063860581437511E1    -5.542678712461649E-2   -1.063096902937122E1    -4.412486562175771E1     2.211080051059936
 2.896537500000000E7    -4.202707392873335E1     2.808816221378017      -6.030321063395092E-2   -1.077585129132934E1    -5.749317430914579E-2   -1.076619220485487E1    -4.402757387547819E1     3.120316739384998
 2.934025000000000E7    -4.208414952467473E1     2.793222702506687      -6.072659394391896E-2   -1.091427997560782E1    -5.668601613192523E-2   -1.090791508967423E1    -4.396194789553991E1     2.158120304964221
 2.971512500000000E7    -4.214861018533666E1     2.522058237251843      -5.917343828313196E-2   -1.105368473233571E1    -5.689746267365809E-2   -1.104945582031728E1    -4.386203284246528E1     4.886751989299711
 3.009000000000000E7    -4.211716355692814E1     2.634328732219969      -5.991755364884171E-2   -1.119320095740537E1    -5.659950077436482E-2   -1.118222461419673E1    -4.402560528577409E1     2.571609062542141
 3.046487500000000E7    -4.203407921912201E1     2.064202170998299      -6.015156122097894E-2   -1.132509483396534E1    -5.649077140159006E-2   -1.132278732326305E1    -4.404308185070963E1     4.163610285713405
 3.083975000000000E7    -4.196152025300680E1     1.999141522798217      -6.002804094472661E-2   -1.146429785127266E1    -5.693366316508086E-2   -1.146093834103955E1    -4.425096562197513E1     3.479341322599402
 3.121462500000000E7    -4.178078600424605E1     1.404151186224462      -6.068072527683251E-2   -1.160139453800744E1    -5.769984732926479E-2   -1.159921269432732E1    -4.396883828247656E1     2.458052540831764
 3.158950000000000E7    -4.179127399635008E1     1.360475463086647      -6.072943284333042E-2   -1.173681744552718E1    -5.847257856089371E-2   -1.173754742474402E1    -4.411474245529340E1     9.613206474359349E-1
 3.196437500000000E7    -4.178073616053706E1     6.821752379354122E-1   -6.149828578469098E-2   -1.187649228135180E1    -5.849644071907135E-2   -1.187198564360779E1    -4.410079647658744E1     1.669371018102303
 3.233925000000000E7    -4.170304283960630E1     1.096506019882792      -6.166321452254532E-2   -1.201402365037065E1    -5.820162900468612E-2   -1.201044148761340E1    -4.403054605068776E1     7.862106559487336E-1
 3.271412500000000E7    -4.177363294852378E1     7.093821978478703E-1   -6.289676344335902E-2   -1.215100819330257E1    -5.855437656250570E-2   -1.214987692433318E1    -4.403257265186590E1     2.651336723816509
 3.308900000000000E7    -4.164216429286049E1     8.880231332489787E-1   -6.268904967347884E-2   -1.228856552275257E1    -6.045296628384716E-2   -1.228647769885356E1    -4.407607964002663E1     2.176621523349297
 3.346387500000000E7    -4.162257779230009E1     4.532368714781765E-1   -6.255037123320625E-2   -1.242251309531588E1    -5.947523178408908E-2   -1.242303799793525E1    -4.406004215668672E1     2.252856032163447
 3.383875000000000E7    -4.159877237253349E1     5.696390501062056E-1   -6.280587859175862E-2   -1.256008631735517E1    -5.876660881700557E-2   -1.255946266345594E1    -4.414036350115785E1     2.838798647911994
 3.421362500000000E7    -4.155428845501059E1     3.808699978185340E-1   -6.265978630403270E-2   -1.269505323391661E1    -5.946831598861614E-2   -1.269446189591635E1    -4.400059492402359E1     1.534858462796935
 3.458850000000000E7    -4.147072811428133E1     9.143156749754522E-2   -6.244421125862318E-2   -1.283186342706037E1    -6.086237257027689E-2   -1.283234382090754E1    -4.377139512807086E1     2.438992002856220
 3.496337500000000E7    -4.135204645609998E1    -6.485336060060397E-1   -6.244770629764239E-2   -1.296972844615709E1    -6.008784681131426E-2   -1.296652893630401E1    -4.389832048924681E1     2.033813835471066
 3.533825000000000E7    -4.146303671704992E1    -1.097115332161990E-1   -6.223059959234049E-2   -1.310343259251482E1    -6.003644363751785E-2   -1.310067005148236E1    -4.406256790577374E1     1.665566074056113
 3.571312500000000E7    -4.138080043753256E1    -1.777974229234767      -6.305884756462514E-2   -1.323627330453907E1    -5.902315924443847E-2   -1.324081866433881E1    -4.390456088255736E1     2.205491371685834
 3.608800000000000E7    -4.133841165839524E1    -1.741334170231455      -6.306704354246224E-2   -1.337707581431196E1    -5.853979635293058E-2   -1.337861725119151E1    -4.385966664930608E1     3.472710287830670E-1
 3.646287500000000E7    -4.131141334087299E1    -1.979511568512582      -6.178694526207143E-2   -1.351564557062624E1    -6.000807078443855E-2   -1.351706245145281E1    -4.386481708909913E1     1.927504793001421E-1
 3.683775000000000E7    -4.130177361925621E1    -2.142456259668993      -6.227097398649416E-2   -1.365433353523218E1    -6.025156686454490E-2   -1.365441367366620E1    -4.400193824763342E1     5.239610249216969E-1
 3.721262500000000E7    -4.136264795219455E1    -2.646642331895876      -6.339323717446896E-2   -1.379264614754496E1    -6.010218094393553E-2   -1.379240797706860E1    -4.382287521885139E1    -3.590250895511975E-1
 3.758750000000000E7    -4.125586604103309E1    -2.295850516791158      -6.278250010934001E-2   -1.392941724469252E1    -6.133871676496033E-2   -1.393224456765467E1    -4.370607098547084E1    -1.104648789664663
 3.796237500000000E7    -4.121475154604723E1    -2.327659831213194      -6.281018157775432E-2   -1.406686463705537E1    -6.138820090075852E-2   -1.407008669346268E1    -4.377588255043850E1    -1.097440726398183
 3.833725000000000E7    -4.114191852020579E1    -2.796899423942182      -6.387977854468781E-2   -1.420545180959175E1    -6.189262944113549E-2   -1.420656196547619E1    -4.384760442885000E1    -5.938048653911128E-1
 3.871212500000000E7    -4.104111743573880E1    -3.406675958919110      -6.344992766673957E-2   -1.434619716288194E1    -6.181784173964947E-2   -1.434576384307329E1    -4.368538166632124E1    -2.065768123660345
 3.908700000000000E7    -4.102045095688567E1    -3.780613741425065      -6.377960241635090E-2   -1.448385845293394E1    -6.158528037723224E-2   -1.448650638037005E1    -4.407912268139335E1    -8.523743764546766E-1
 3.946187500000000E7    -4.108050198500409E1    -4.046320036235549      -6.420091599387212E-2   -1.462196544411081E1    -6.193742180821093E-2   -1.461959546902527E1    -4.376871452002162E1    -1.565056467588268
 3.983675000000000E7    -4.097332856393174E1    -3.777222876431081      -6.444482876361390E-2   -1.475761021101248E1    -6.256141351992102E-2   -1.476202759600705E1    -4.376220109381538E1    -3.309734975769268
 4.021162500000000E7    -4.107470624850060E1    -4.004984168323562      -6.459944142247961E-2   -1.489611408445570E1    -6.261787832964444E-2   -1.489442999737594E1    -4.381927456701474E1    -2.183061778216993
 4.058650000000000E7    -4.097935881292742E1    -4.524250914459738      -6.453591088901348E-2   -1.503140406987940E1    -6.232378215230466E-2   -1.503444127987750E1    -4.367017074560564E1    -2.419904115662014
 4.096137500000000E7    -4.093751555321511E1    -5.133393150419423      -6.433964342542291E-2   -1.517242103641000E1    -6.124996703531239E-2   -1.517601107356854E1    -4.368255266564235E1    -3.027994322707423
 4.133625000000000E7    -4.087204121822970E1    -4.511317628668647      -6.456635105158873E-2   -1.530985630610000E1    -6.219443541544683E-2   -1.531104115521680E1    -4.388291991237941E1    -2.884503170337668
 4.171112500000000E7    -4.083444951589649E1    -5.126304902133903      -6.461876183803444E-2   -1.544552197487616E1    -6.340226362931271E-2   -1.545066695997060E1    -4.388273353439811E1    -2.218231710838484
 4.208600000000000E7    -4.090427239182964E1    -5.597417341226913      -6.511354300825399E-2   -1.558457773928538E1    -6.336251042202537E-2   -1.558837660758472E1    -4.371321094581877E1    -3.034735636585601
 4.246087500000000E7    -4.097621147681431E1    -5.016509440786871      -6.516597150515867E-2   -1.572199506229089E1    -6.366418486441380E-2   -1.572411947069886E1    -4.372065890740746E1    -4.198644387744092
 4.283575000000000E7    -4.078968580296464E1    -5.786438328646947      -6.479900976836472E-2   -1.585966212631403E1    -6.453273165437767E-2   -1.586277842142631E1    -4.370622525094819E1    -4.686352294846155
 4.321062500000000E7    -4.095073617494737E1    -6.412971856587983      -6.575764021175970E-2   -1.599335339933334E1    -6.423057597568509E-2   -1.599817043795372E1    -4.356686780860517E1    -3.601443091579763
 4.358550000000000E7    -4.092277889500493E1    -6.338480190442552      -6.610240694310714E-2   -1.613416338017173E1    -6.378185066646774E-2   -1.613462863077660E1    -4.353755815126566E1    -4.296916448550922
 4.396037500000000E7    -4.083978434176324E1    -6.702780874094001      -6.571094660359383E-2   -1.627192627015601E1    -6.442918122812133E-2   -1.627548702951276E1    -4.355016142715566E1    -4.039531216286582
 4.433525000000000E7    -4.089434618532487E1    -6.335010964720567      -6.647539820694140E-2   -1.640848492788784E1    -6.447905687322530E-2   -1.641317720096379E1    -4.349699391263418E1    -5.169881282189634
 4.471012500000000E7    -4.083149682511070E1    -6.209392838398648      -6.625329623688800E-2   -1.654958577789693E1    -6.440610090293784E-2   -1.654886357366497E1    -4.350581206298536E1    -5.996874998830597
 4.508500000000000E7    -4.083332112504059E1    -6.852770017735424      -6.605850173212824E-2   -1.668497222718281E1    -6.496046860017038E-2   -1.668960667844548E1    -4.338558088572542E1    -6.035651669062680
 4.545987500000000E7    -4.072127431270124E1    -7.218451239220506      -6.702924920541940E-2   -1.682038546867504E1    -6.504622457060175E-2   -1.682493481938307E1    -4.355220684898590E1    -6.202912378245242
 4.583475000000000E7    -4.067703463479720E1    -8.332209952600182      -6.721404843199753E-2   -1.695740103795672E1    -6.445236577978966E-2   -1.695998161448927E1    -4.358924595363879E1    -6.205000382981280
 4.620962500000000E7    -4.060909528393712E1    -8.411323678467111      -6.745768573070784E-2   -1.709456411429355E1    -6.517975670053062E-2   -1.710049600887802E1    -4.362934151901676E1    -5.038180579043440
 4.658450000000000E7    -4.069923068555622E1    -8.114704932387051      -6.704631654678561E-2   -1.723526294139563E1    -6.562481528806254E-2   -1.723843990261540E1    -4.349107915652409E1    -6.792009591427237
 4.695937500000000E7    -4.066425718682667E1    -7.916014693850379      -6.728373589580317E-2   -1.737259062642441E1    -6.604971798344764E-2   -1.737512844833381E1    -4.315437576418660E1    -8.510240551712659
 4.733425000000000E7    -4.072910684045639E1    -7.998406976748808      -6.771043378417775E-2   -1.750851370333000E1    -6.635935149933275E-2   -1.751342505021209E1    -4.311646012950415E1    -7.348543442759276
 4.770912500000000E7    -4.070702409397547E1    -8.354459360405528      -6.772090921483387E-2   -1.764717740869933E1    -6.648756005917675E-2   -1.765132084087440E1    -4.337073055435323E1    -7.164707894922098
 4.808400000000000E7    -4.069694089927970E1    -8.265045006647789      -6.831680269013252E-2   -1.778458785970220E1    -6.657275310641271E-2   -1.779001456033826E1    -4.326855911879014E1    -7.701266747916744
 4.845887500000000E7    -4.068089768124235E1    -8.644329920198782      -6.839615598526075E-2   -1.792268350096348E1    -6.690739246840488E-2   -1.792713357006087E1    -4.293736951354857E1    -8.113048595580466
 4.883375000000000E7    -4.056359796711494E1    -8.906593708292680      -6.825025977608584E-2   -1.805995024168314E1    -6.690836073022433E-2   -1.806482340831670E1    -4.317452968987867E1    -8.068749073636075
 4.920862500000000E7    -4.065166710726938E1    -8.723394223966602      -6.862093782671255E-2   -1.819749264759520E1    -6.761427820026211E-2   -1.819845194239146E1    -4.312951363277561E1    -8.625515084665658
 4.958350000000000E7    -4.068684225763839E1    -8.999695158361522      -6.919557148377468E-2   -1.833477040571995E1    -6.705972284713642E-2   -1.833944276085948E1    -4.295346160921036E1    -8.469868120894249
 4.995837500000000E7    -4.061861984301012E1    -9.437046261972387      -6.994409708875211E-2   -1.847192144496168E1    -6.792336090724665E-2   -1.847580239137379E1    -4.278918857618835E1    -8.396910650115908
 5.033325000000000E7    -4.059367710229958E1    -9.202158686987088      -6.916257881220784E-2   -1.861092100510713E1    -6.825325035692767E-2   -1.861737286031839E1    -4.275540682964474E1    -8.227385907409539
 5.070812500000000E7    -4.055180702479414E1    -9.447614928449164      -6.883469022717274E-2   -1.875004174611191E1    -6.815094739472093E-2   -1.875353078548462E1    -4.288154473702047E1    -8.120057972637117
 5.108300000000000E7    -4.049887361769645E1    -9.010361093043016      -6.977682692909888E-2   -1.889106295417463E1    -6.867330431292475E-2   -1.889297434368143E1    -4.276106938385962E1    -7.501801879305336
 5.145787500000000E7    -4.058215473199049E1    -9.022874441273320      -6.991355733381496E-2   -1.902609194350295E1    -6.845327277255117E-2   -1.903207138330647E1    -4.262383106747323E1    -8.434830564412385
 5.183275000000000E7    -4.064820536316996E1    -9.820549202760201      -6.942227183055666E-2   -1.916472672849610E1    -6.790673790347214E-2   -1.917139598081470E1    -4.268793632056059E1    -7.440001419461503
 5.220762500000000E7    -4.065586671696142E1    -9.763101199570213      -6.917135722959658E-2   -1.930362335203278E1    -6.939558991355213E-2   -1.930457832403046E1    -4.264233308782355E1    -8.593990116601493
 5.258250000000000E7    -4.069307182571133E1    -9.783428840659605      -7.062939924841363E-2   -1.944122986533176E1    -6.948489262542086E-2   -1.944535252836632E1    -4.258113721510124E1    -7.911529857809215
 5.295737500000000E7    -4.067100609378385E1    -9.885419700883872      -7.068160456801265E-2   -1.958015045113666E1    -6.961658681841983E-2   -1.958549360923294E1    -4.249460725703592E1    -8.396190442604116
 5.333225000000000E7    -4.056345427402222E1    -9.596114722613784      -7.038248703976890E-2   -1.971950323676151E1    -6.945821333573282E-2   -1.972057042787118E1    -4.249894701220803E1    -7.737610793718047
 5.370712500000000E7    -4.046999301463756E1    -8.772292674934942      -7.066441148819698E-2   -1.985782336625607E1    -6.949436033061977E-2   -1.986170720519889E1    -4.244307320852768E1    -8.154479560814273
 5.408200000000000E7    -4.044565681307954E1    -9.867881077944038      -7.124230115408599E-2   -1.999572934681794E1    -7.070802177085382E-2   -1.999892621010387E1    -4.238154931234455E1    -7.494432867863082
 5.445687500000000E7    -4.041359113618946E1    -9.608415011788525      -7.157704119338609E-2   -2.013201069203220E1    -7.030778376343459E-2   -2.013624295393736E1    -4.245999595684044E1    -8.913592263278307
 5.483175000000000E7    -4.045896268798054E1    -1.060205501393169E1    -7.283912784847510E-2   -2.026798566589470E1    -7.113387088749748E-2   -2.027215360072020E1    -4.213054635197246E1    -9.121545547776499
 5.520662500000000E7    -4.049005834156841E1    -1.054633928380213E1    -7.269670578774004E-2   -2.040687125755356E1    -7.186109469892421E-2   -2.040952376138321E1    -4.198634234056546E1    -9.593684966922270
 5.558150000000000E7    -4.045158915924159E1    -1.055035417755632E1    -7.212674211312724E-2   -2.054227385152014E1    -7.250949415550134E-2   -2.054755090231329E1    -4.188368809653403E1    -9.696128316271858
 5.595637500000000E7    -4.034301987034060E1    -1.083742648902246E1    -7.335325464479679E-2   -2.067554479532541E1    -7.233878564320158E-2   -2.067865125012888E1    -4.204430393076202E1    -9.958013577263017
 5.633125000000000E7    -4.033803424692012E1    -1.132346093033005E1    -7.294192327110299E-2   -2.080945991272307E1    -7.290777080208882E-2   -2.081533054163485E1    -4.189574393673904E1    -1.078863743025170E1
 5.670612500000000E7    -4.041355462278335E1    -1.126562396157822E1    -7.188418777263306E-2   -2.094623204923291E1    -7.279280200877238E-2   -2.094276280658939E1    -4.211165594557033E1    -1.035461638031448E1
 5.708100000000000E7    -4.048392714582560E1    -1.161367536097172E1    -7.150709819754293E-2   -2.107862577023192E1    -7.211388142043450E-2   -2.108029926710220E1    -4.212686378310367E1    -1.112075059547693E1
 5.745587500000000E7    -4.054549310218196E1    -1.199592681615382E1    -7.185381006897230E-2   -2.121688508046585E1    -7.216498438468143E-2   -2.121627967288354E1    -4.207969350557850E1    -1.169793351962208E1
 5.783075000000000E7    -4.060217455294891E1    -1.178692759035309E1    -7.161788110324641E-2   -2.135589886258629E1    -7.115942003279757E-2   -2.135494837559747E1    -4.190560174461914E1    -1.053089952711933E1
 5.820562500000000E7    -4.062878111981293E1    -1.144404742442935E1    -7.180774390895586E-2   -2.149720546346824E1    -7.125770486305572E-2   -2.149245236348431E1    -4.198362382976254E1    -1.007600576193516E1
 5.858050000000000E7    -4.059253026515664E1    -1.029829404039115E1    -7.170061896425793E-2   -2.163609298740498E1    -7.096861537022618E-2   -2.163603317184565E1    -4.205741474917184E1    -1.077647201963962E1
 5.895537500000000E7    -4.053349118553538E1    -1.039634524387652E1    -7.149565033023043E-2   -2.177619197426660E1    -7.085176578682331E-2   -2.177441675821612E1    -4.206419930724387E1    -8.988966739742846
 5.933025000000000E7    -4.058059085279719E1    -1.070029191126607E1    -7.230172932150156E-2   -2.191276060595912E1    -7.097490362021257E-2   -2.191202518211119E1    -4.187325729387084E1    -1.026944670684768E1
 5.970512500000000E7    -4.053653047906440E1    -1.017997480837819E1    -7.239803611394714E-2   -2.205024488633310E1    -7.193908540211749E-2   -2.205325074107331E1    -4.177221809289005E1    -9.555254303856197
 6.008000000000000E7    -4.044527364095561E1    -1.076796620912711E1    -7.201543598062475E-2   -2.219201887859697E1    -7.180736165999294E-2   -2.218818309757685E1    -4.192311826354842E1    -8.448360813091265
 6.045487500000000E7    -4.050060470100983E1    -1.068610968055033E1    -7.230761308102283E-2   -2.232868211590042E1    -7.129881378998976E-2   -2.232860928878415E1    -4.175065528217522E1    -8.745118354707943
 6.082975000000000E7    -4.053370757811506E1    -1.030524810840368E1    -7.247555812580216E-2   -2.246759539574313E1    -7.118569089478449E-2   -2.246595352649939E1    -4.172409226828380E1    -8.473369401694864
 6.120462500000000E7    -4.053440571967704E1    -1.015017219356163E1    -7.122286500201579E-2   -2.260596459173613E1    -7.252036113573652E-2   -2.260374223316777E1    -4.151268886511262E1    -8.556853299689912
 6.157950000000000E7    -4.047159413370473E1    -1.056661528641746E1    -7.292910434240449E-2   -2.274056278642187E1    -7.186719475212927E-2   -2.273692031857162E1    -4.174563838905720E1    -8.712659725309880
 6.195437500000000E7    -4.051728877729126E1    -1.044359656872353E1    -7.373397709342017E-2   -2.287779840354027E1    -7.185580475873327E-2   -2.287470753451202E1    -4.179544228168774E1    -8.834186223185485
 6.232925000000000E7    -4.059905292918826E1    -1.050281811748900E1    -7.289847104747933E-2   -2.301518660937125E1    -7.222478783700259E-2   -2.301247838173725E1    -4.153430146023526E1    -8.773065306134091
 6.270412500000000E7    -4.050385117411457E1    -1.077126278659534E1    -7.245403320414900E-2   -2.315584777557407E1    -7.204796076506292E-2   -2.315250549655902E1    -4.155206980894125E1    -7.432279556604144
 6.307900000000000E7    -4.051448566807453E1    -1.028445250641661E1    -7.284888956954420E-2   -2.329564022224435E1    -7.236656352154612E-2   -2.328916689099439E1    -4.161111105593292E1    -7.400456832490311
 6.345387500000000E7    -4.049949996299886E1    -1.039884435362282E1    -7.373444257078553E-2   -2.343279213280660E1    -7.184090166451321E-2   -2.342942428941240E1    -4.172658399333084E1    -7.316008055913501
 6.382875000000000E7    -4.060649903683802E1    -1.002238236740979E1    -7.314730895749681E-2   -2.356928788363543E1    -7.217031598112884E-2   -2.356506777626998E1    -4.153586091729630E1    -8.314101016578952
 6.420362500000000E7    -4.062595475647232E1    -9.948528567718860      -7.429942925363059E-2   -2.370742531753146E1    -7.183464220478412E-2   -2.370094071715504E1    -4.136187188821965E1    -8.609896014392866
 6.457850000000000E7    -4.064634165353751E1    -9.520291871972686      -7.266249613628732E-2   -2.384779496422776E1    -7.223253617851144E-2   -2.384470757076173E1    -4.142384238301851E1    -8.134762862370907
 6.495337500000000E7    -4.064944313972283E1    -9.319514112376407      -7.172995502494689E-2   -2.398042177732620E1    -7.208288475233428E-2   -2.398063453233095E1    -4.132607554217279E1    -8.067635496242588
 6.532825000000000E7    -4.057816895753679E1    -9.962348161730064      -7.250352331656915E-2   -2.411944743549466E1    -7.222524245404559E-2   -2.411649778505253E1    -4.151260318527103E1    -7.775387866905112
 6.570312500000000E7    -4.050761927791634E1    -9.604389049328555      -7.396822323139211E-2   -2.425780770280000E1    -7.132007640268664E-2   -2.425585044981753E1    -4.135834946697241E1    -7.885910642565549
 6.607800000000000E7    -4.039517211933808E1    -9.592627961221247      -7.342763039016381E-2   -2.439680104133491E1    -7.150799877080093E-2   -2.439305963925069E1    -4.149394709532871E1    -7.518725336042541
 6.645287500000000E7    -4.047664911587016E1    -9.631941099410316      -7.319637216953222E-2   -2.453374573821289E1    -7.205384086517747E-2   -2.453275501520734E1    -4.131759247569455E1    -7.883864320207495
 6.682775000000000E7    -4.045260022808591E1    -1.003525881693578E1    -7.297896120660517E-2   -2.467579613943152E1    -7.164599592523092E-2   -2.466946093924405E1    -4.140067821960947E1    -7.082416934304775
 6.720262500000000E7    -4.045933060028879E1    -1.051558370846626E1    -7.344054345320598E-2   -2.481291679317311E1    -7.126125643063408E-2   -2.481216622797129E1    -4.140171807926444E1    -6.711533588829800
 6.757750000000000E7    -4.037987814675498E1    -9.638739237686064      -7.343539846915369E-2   -2.495210966075502E1    -7.195156353657277E-2   -2.495520990366927E1    -4.153983254640448E1    -6.448527802363292
 6.795237500000000E7    -4.043868035127677E1    -9.621347812281924      -7.399941618767171E-2   -2.509294799560992E1    -7.194640475930483E-2   -2.509093860558866E1    -4.157382935971218E1    -7.458530129520625
 6.832725000000000E7    -4.039151469328067E1    -1.015609345856932E1    -7.371305067248202E-2   -2.523171635374997E1    -7.225391438777763E-2   -2.522741706693627E1    -4.146123707874393E1    -6.238369546398349
 6.870212500000000E7    -4.041547113777221E1    -1.015883182331764E1    -7.334434932595901E-2   -2.537163294769487E1    -7.211869724058384E-2   -2.536975083562192E1    -4.144690638936260E1    -6.190203531642894
 6.907700000000000E7    -4.038107132834027E1    -1.010384506349884E1    -7.390955641015122E-2   -2.550702059520873E1    -7.260440953892189E-2   -2.550240234490822E1    -4.146175526036762E1    -6.808631819409356
 6.945187500000000E7    -4.048291030939134E1    -1.087879484488246E1    -7.479668657963885E-2   -2.564139896002675E1    -7.240666080077113E-2   -2.564390941914137E1    -4.143885055235430E1    -5.763446728247927
 6.982675000000000E7    -4.050759920558956E1    -1.042306437494650E1    -7.496163036349682E-2   -2.577939594916256E1    -7.250455025109287E-2   -2.578066492397161E1    -4.143957870235231E1    -5.035453702173634
 7.020162500000000E7    -4.047790792218898E1    -1.107342871087575E1    -7.456475332592788E-2   -2.591986555011299E1    -7.320176125101235E-2   -2.591486216650902E1    -4.132164767800391E1    -5.662537067651936
 7.057650000000000E7    -4.038639944399129E1    -1.036668498535950E1    -7.513847191753718E-2   -2.605676755848953E1    -7.330876989613490E-2   -2.605815137448225E1    -4.136662489372657E1    -5.351264539321737
 7.095137500000000E7    -4.036513155439467E1    -1.032674736330971E1    -7.530931408245944E-2   -2.619806723988418E1    -7.202028114138635E-2   -2.619706944127646E1    -4.150018430677746E1    -4.826337201368957
 7.132625000000000E7    -4.040174391803323E1    -1.042594494386150E1    -7.470103388657950E-2   -2.633256905868350E1    -7.243808689214108E-2   -2.633424634041239E1    -4.155147341497131E1    -5.446373191768933
 7.170112500000000E7    -4.040032668050108E1    -1.075211098427151E1    -7.585425540297717E-2   -2.647091672550144E1    -7.266707214499039E-2   -2.647199977211206E1    -4.140242849815597E1    -5.563092975481812
 7.207600000000000E7    -4.040017443541703E1    -1.102054168685360E1    -7.568825008357868E-2   -2.660922047852317E1    -7.341145296198504E-2   -2.660571455595668E1    -4.148972945358074E1    -5.829310853300355
 7.245087500000000E7    -4.026918126105645E1    -1.120337101668012E1    -7.561437180161926E-2   -2.674559259504785E1    -7.349987716889053E-2   -2.674974159089751E1    -4.159103950978921E1    -4.959826676181942
 7.282575000000000E7    -4.035675318364272E1    -1.096819464723013E1    -7.626378146174610E-2   -2.688635385998975E1    -7.305730415476896E-2   -2.688857461201283E1    -4.146893656793140E1    -4.112722617914617
 7.320062500000000E7    -4.036474943137762E1    -1.109663818298327E1    -7.591348050847548E-2   -2.702620049897517E1    -7.303410193293722E-2   -2.702539649840353E1    -4.141648640173847E1    -4.887202373640960
 7.357550000000000E7    -4.026924390278428E1    -1.156410385820762E1    -7.511590986859583E-2   -2.716061429989968E1    -7.355346580291611E-2   -2.716642985673876E1    -4.136053326330248E1    -5.440084104257416
 7.395037500000000E7    -4.034966513885274E1    -1.091711385092118E1    -7.478270906146912E-2   -2.730149032789122E1    -7.473469049836559E-2   -2.730273254069770E1    -4.174172412851998E1    -4.256945432566401
 7.432525000000000E7    -4.039331053708493E1    -1.197423084351891E1    -7.611578617700940E-2   -2.743789189626683E1    -7.360982843866619E-2   -2.744184455959948E1    -4.166870212188331E1    -4.557754401830678
 7.470012500000000E7    -4.037077669497106E1    -1.252737103971007E1    -7.629317326281104E-2   -2.757457333054079E1    -7.413340490931927E-2   -2.757881285144960E1    -4.154039546152880E1    -6.049035182575425
 7.507500000000000E7    -4.038454749101397E1    -1.198453053154486E1    -7.635602679541957E-2   -2.770597724615287E1    -7.358474016798633E-2   -2.771899542957865E1    -4.175959030782722E1    -6.239959493844593
 7.544987500000000E7    -4.040588729304802E1    -1.275487143401884E1    -7.535682409798095E-2   -2.784752499733566E1    -7.400826728654283E-2   -2.785220116735152E1    -4.175499471236684E1    -5.352427828573937
 7.582475000000000E7    -4.022185999332001E1    -1.240774043929390E1    -7.562569930140260E-2   -2.799020639206031E1    -7.443733219828957E-2   -2.799180346503145E1    -4.171944396043395E1    -5.548390330515768
 7.619962500000000E7    -4.027883835950349E1    -1.312341255335304E1    -7.640382176699728E-2   -2.812779401216825E1    -7.430650764246245E-2   -2.812669616426400E1    -4.176850230512655E1    -4.832651100089167
 7.657450000000000E7    -4.028465816048266E1    -1.216104633685906E1    -7.707890545500701E-2   -2.826598555271289E1    -7.426588622202571E-2   -2.826452760006547E1    -4.161698146173499E1    -5.968360453017576
 7.694937500000000E7    -4.022666675409114E1    -1.314129482778410E1    -7.646066667720902E-2   -2.840182608996423E1    -7.507269623198475E-2   -2.840686761364511E1    -4.173723618760376E1    -6.337181425571530
 7.732425000000000E7    -4.025977058943464E1    -1.384825125734348E1    -7.638233116647579E-2   -2.853959070796511E1    -7.563517844564238E-2   -2.854596136346802E1    -4.187075743749394E1    -5.925370870665014
 7.769912500000000E7    -4.032151938453146E1    -1.419999605499276E1    -7.619665175048215E-2   -2.867475439285445E1    -7.499190933400537E-2   -2.868653938624325E1    -4.178732777471158E1    -5.506597064978700
 7.807400000000000E7    -4.041638530871195E1    -1.401044897924847E1    -7.682751816175770E-2   -2.881269173923257E1    -7.418130339925905E-2   -2.882128185651242E1    -4.186279403972647E1    -6.075622665222264
 7.844887500000000E7    -4.043928729467399E1    -1.433442496508439E1    -7.681888001265888E-2   -2.895337540302355E1    -7.512486433345188E-2   -2.895816714584018E1    -4.179067902399588E1    -6.680447174570394
 7.882375000000000E7    -4.034292672262451E1    -1.472091389808961E1    -7.715799037176141E-2   -2.909117489022661E1    -7.469060070109639E-2   -2.909248810510246E1    -4.193608807664588E1    -6.147265298496570
 7.919862500000000E7    -4.029760281765555E1    -1.486611279455187E1    -7.597563981257772E-2   -2.922946186019641E1    -7.480620739446306E-2   -2.923061884276111E1    -4.203193896429574E1    -7.075740355753306
 7.957350000000000E7    -4.017189141306562E1    -1.551907493171153E1    -7.640785229702723E-2   -2.936950078889200E1    -7.577368828686985E-2   -2.936768056258990E1    -4.201485235653320E1    -7.364977635690128
 7.994837500000000E7    -4.011446850954311E1    -1.628515043303883E1    -7.756325051673439E-2   -2.950394642897286E1    -7.542899957839552E-2   -2.950922350978007E1    -4.210056122632431E1    -7.358598155205940
 8.032325000000000E7    -4.016272713746235E1    -1.629559985223512E1    -7.752347134936789E-2   -2.964492205596256E1    -7.532766091735310E-2   -2.965196295499992E1    -4.227265219486958E1    -7.987942028542474
 8.069812500000000E7    -4.022522219612901E1    -1.683573559134677E1    -7.588395805349693E-2   -2.978349546460220E1    -7.484122726291824E-2   -2.979439297975738E1    -4.235752900571075E1    -8.101935104276544
 8.107300000000000E7    -4.029827568660536E1    -1.690432324711713E1    -7.596837517236622E-2   -2.991969999635035E1    -7.518026584883353E-2   -2.992894921853687E1    -4.241452556601927E1    -8.148880736006838
 8.144787500000000E7    -4.017620217544240E1    -1.710131260868025E1    -7.642025597435459E-2   -3.005701147124633E1    -7.573427899729769E-2   -3.006572102893536E1    -4.247430250854510E1    -8.592538876940996
 8.182275000000000E7    -4.012494647513322E1    -1.856851116904244E1    -7.599613157110638E-2   -3.019611898463376E1    -7.547602742146482E-2   -3.020077613975186E1    -4.242757230720690E1    -8.841796550397127
 8.219762500000000E7    -4.013261102581020E1    -1.829624504231148E1    -7.642706989423545E-2   -3.033927596179210E1    -7.478020345970658E-2   -3.033281235309371E1    -4.244174163185573E1    -1.025862766207841E1
 8.257250000000000E7    -4.018559086749743E1    -1.897651129838218E1    -7.605453353100469E-2   -3.047482111163532E1    -7.461447540989002E-2   -3.047627883702658E1    -4.251829069864929E1    -1.026330718644775E1
 8.294737500000000E7    -4.016731597224624E1    -1.951722813777510E1    -7.682233772162692E-2   -3.060929172256443E1    -7.543083806365508E-2   -3.061776475350451E1    -4.253316476712416E1    -1.157389236037234E1
 8.332225000000000E7    -4.026268422102319E1    -1.997542832374934E1    -7.645116589882739E-2   -3.074758534221987E1    -7.566175016009430E-2   -3.075816111651882E1    -4.264846360960908E1    -1.177473204001091E1
 8.369712500000000E7    -4.016273731514769E1    -2.057491304709171E1    -7.736572232070131E-2   -3.088737940918029E1    -7.470175510524549E-2   -3.089550219553186E1    -4.281639348582377E1    -1.271801647135634E1
 8.407200000000000E7    -4.019715101969187E1    -2.107811656873769E1    -7.585777894131771E-2   -3.102260325157619E1    -7.525692789321958E-2   -3.103365087589396E1    -4.278442476597122E1    -1.312049375199774E1
 8.444687500000000E7    -4.037991314501365E1    -2.120239933513216E1    -7.670696338110011E-2   -3.116227450557977E1    -7.476190357856310E-2   -3.116405835898088E1    -4.285428372688432E1    -1.438305611025973E1
 8.482175000000000E7    -4.031046711255178E1    -2.114067574881693E1    -7.714979136630419E-2   -3.130163264075772E1    -7.580359466963969E-2   -3.130262480719963E1    -4.302377061781171E1    -1.443786613835970E1
 8.519662500000000E7    -4.024311696503057E1    -2.176725909515712E1    -7.682789982012306E-2   -3.143957756376164E1    -7.557682510982144E-2   -3.143865996567705E1    -4.309920649225261E1    -1.517440508490865E1
 8.557150000000000E7    -4.035197109138605E1    -2.244290035026683E1    -7.752341585166456E-2   -3.157487734227143E1    -7.434432722171941E-2   -3.157745372205979E1    -4.315831805409098E1    -1.580801720482561E1
 8.594637500000000E7    -4.017827253999349E1    -2.397911282523232E1    -7.676828587241161E-2   -3.171220308493616E1    -7.555826244973851E-2   -3.171866901564723E1    -4.305132154300058E1    -1.636741213036070E1
 8.632125000000000E7    -4.018381463666229E1    -2.454162529466882E1    -7.605417973773353E-2   -3.184966802560838E1    -7.566199597969395E-2   -3.185730137421745E1    -4.310807865038739E1    -1.683764937882157E1
 8.669612500000000E7    -4.022153478177047E1    -2.479617694590620E1    -7.600927677537372E-2   -3.198960782686430E1    -7.508311180125150E-2   -3.199259372109440E1    -4.335799853398885E1    -1.735548197857199E1
 8.707100000000000E7    -4.029356199783344E1    -2.562917238104736E1    -7.699093172698618E-2   -3.212663160601447E1    -7.648524498603351E-2   -3.212899918287326E1    -4.330672091233535E1    -1.785873405211843E1
 8.744587500000000E7    -4.015983980149534E1    -2.652896427798303E1    -7.779295360964623E-2   -3.226389485746276E1    -7.512482824285908E-2   -3.226930588051756E1    -4.329384950249548E1    -1.925747245123426E1
 8.782075000000000E7    -4.024596421483440E1    -2.636651813950337E1    -7.766059900710545E-2   -3.240426971707078E1    -7.554704626854446E-2   -3.240667577212606E1    -4.331598677601768E1    -2.027375048836141E1
 8.819562500000000E7    -4.025248230365526E1    -2.740410876040118E1    -7.710338901362986E-2   -3.254052898592919E1    -7.707052762223640E-2   -3.254616673291681E1    -4.349757924816805E1    -1.991780523846376E1
 8.857050000000000E7    -4.031282549093929E1    -2.775901494945282E1    -7.733016979816269E-2   -3.267747814538966E1    -7.713406323213445E-2   -3.268173345361387E1    -4.338406182440393E1    -2.234637626318809E1
 8.894537500000000E7    -4.031265713278722E1    -2.866009940731544E1    -7.743534056307638E-2   -3.281446937892424E1    -7.679232357613090E-2   -3.281868118538259E1    -4.367139404013361E1    -2.281005834061317E1
 8.932025000000000E7    -4.030389650312184E1    -2.922707380941858E1    -7.778846902653051E-2   -3.295347532503501E1    -7.748712655139897E-2   -3.295785640270957E1    -4.351754763783975E1    -2.366799935532692E1
 8.969512500000000E7    -4.027049362585953E1    -2.992432752481754E1    -7.869548983105151E-2   -3.309148280745946E1    -7.757326572128741E-2   -3.309571777329069E1    -4.344893472199166E1    -2.609811910028065E1
 9.007000000000000E7    -4.024183325820567E1    -3.038820903468755E1    -7.949055373003514E-2   -3.322994793501918E1    -7.727673950859522E-2   -3.323349996247800E1    -4.353341390421605E1    -2.752487484139638E1
 9.044487500000000E7    -4.034319216359154E1    -3.080141911743410E1    -7.848284009838119E-2   -3.336729678355467E1    -7.842421735448427E-2   -3.337368839385262E1    -4.364017341052307E1    -2.798246522267841E1
 9.081975000000000E7    -4.040516334338201E1    -3.131785785382467E1    -7.874965301697573E-2   -3.350601731063494E1    -7.756543246141680E-2   -3.351216434819310E1    -4.358184150880030E1    -2.927515175697311E1
 9.119462500000000E7    -4.029841988309533E1    -3.096640208963354E1    -7.913210766577358E-2   -3.364510921839342E1    -7.784482456649597E-2   -3.364866251308327E1    -4.381287066618103E1    -3.054570347881516E1
 9.156950000000000E7    -4.030519244286283E1    -3.272939487455946E1    -7.816183351354583E-2   -3.378169919198051E1    -7.828367750926600E-2   -3.378385900470169E1    -4.365011532419692E1    -3.175542674193460E1
 9.194437500000000E7    -4.027948880369118E1    -3.378571310467376E1    -7.842076611024178E-2   -3.391715794620870E1    -7.818294626303347E-2   -3.392122125631151E1    -4.385320198484452E1    -3.227309141116289E1
 9.231925000000000E7    -4.028044950531352E1    -3.447498482604080E1    -7.890244285412099E-2   -3.405410395813843E1    -7.854234879528667E-2   -3.406163280414538E1    -4.404392361220307E1    -3.320403703819124E1
 9.269412500000000E7    -4.028150164242193E1    -3.462700486786650E1    -7.925631337955007E-2   -3.419354158844304E1    -7.801439046212574E-2   -3.419614371123023E1    -4.385292323955074E1    -3.458938912394880E1
 9.306900000000000E7    -4.022207399623446E1    -3.550878820980234E1    -7.951911352228611E-2   -3.433242651846653E1    -7.762656769214540E-2   -3.433798237731497E1    -4.375406578430514E1    -3.606834388799376E1
 9.344387500000000E7    -4.033670917618672E1    -3.584312582541211E1    -7.943974723499977E-2   -3.447148526699654E1    -7.858427214269031E-2   -3.447329953588445E1    -4.390852152058905E1    -3.668800683045816E1
 9.381875000000000E7    -4.033407718567281E1    -3.593747069345014E1    -7.967943486462356E-2   -3.461012453588828E1    -7.948502831925935E-2   -3.461145260657305E1    -4.390751618263238E1    -3.854569919647042E1
 9.419362500000000E7    -4.033522888186054E1    -3.605664910799902E1    -7.885722644290211E-2   -3.474614370685174E1    -7.965550232316040E-2   -3.475152105672973E1    -4.396473936542306E1    -3.904593437983996E1
 9.456850000000000E7    -4.043888364224752E1    -3.716887758423686E1    -7.875892611986576E-2   -3.488488074256210E1    -7.851037296060688E-2   -3.488890263924639E1    -4.367656145568358E1    -4.024642922630706E1
 9.494337500000000E7    -4.054122107489717E1    -3.813032450200903E1    -7.987801875649091E-2   -3.502327707860393E1    -7.800676141176185E-2   -3.502625913959164E1    -4.371235310160132E1    -4.144913319172633E1
 9.531825000000000E7    -4.043171485653120E1    -3.815610065977376E1    -7.999064249689322E-2   -3.516438367061149E1    -7.791750093091301E-2   -3.516654925766471E1    -4.376529293159788E1    -4.245413720624418E1
 9.569312500000000E7    -4.041811018221082E1    -3.948311531714025E1    -7.985563983925463E-2   -3.530356332877785E1    -7.894654750652982E-2   -3.530549991475097E1    -4.395898712546451E1    -4.292537799936883E1
 9.606800000000000E7    -4.033983292867199E1    -4.034197439232627E1    -7.951760466612234E-2   -3.544268584237357E1    -7.924354733730363E-2   -3.544556776531709E1    -4.376324423723374E1    -4.333290605053736E1
 9.644287500000000E7    -4.042162271252742E1    -4.100492668300440E1    -7.991534210549173E-2   -3.557860122719271E1    -7.968205579319501E-2   -3.558630750625115E1    -4.363763645704304E1    -4.478183534857101E1
 9.681775000000000E7    -4.039582272115133E1    -4.138229016994642E1    -7.945510737770456E-2   -3.572010738774500E1    -7.950341500915700E-2   -3.572455930999782E1    -4.372756097750756E1    -4.627963068231240E1
 9.719262500000000E7    -4.038235176929256E1    -4.205294173721943E1    -7.963320091540682E-2   -3.585858494788530E1    -7.977338986659234E-2   -3.586194548546609E1    -4.361434289225411E1    -4.667636194558783E1
 9.756750000000000E7    -4.031394214697813E1    -4.290779074530958E1    -7.981109962329996E-2   -3.599948012923030E1    -7.955612347077151E-2   -3.600374481120357E1    -4.354108845868919E1    -4.851795888605121E1
 9.794237500000000E7    -4.026976045052531E1    -4.396355854877889E1    -8.005805012209391E-2   -3.613702917879186E1    -7.896734193845764E-2   -3.614304064515233E1    -4.360065746814580E1    -4.953997498409390E1
 9.831725000000000E7    -4.028694739031603E1    -4.450240848329568E1    -7.987385354295966E-2   -3.627680793119775E1    -7.819782192088627E-2   -3.628039625995270E1    -4.341639314179478E1    -5.018988951869584E1
 9.869212500000000E7    -4.027961828463753E1    -4.470287440452286E1    -8.044856318797082E-2   -3.641444260588733E1    -7.939367860593843E-2   -3.641778607175647E1    -4.335205076620430E1    -5.147628070953031E1
 9.906700000000000E7    -4.018122615939221E1    -4.510111252631716E1    -7.994054510383711E-2   -3.655115245798500E1    -7.968666102858310E-2   -3.655606800347451E1    -4.335221932692398E1    -5.201756940944232E1
 9.944187500000000E7    -4.023148242474320E1    -4.546436827089997E1    -7.997772859986280E-2   -3.669410067350150E1    -7.950605498489272E-2   -3.669283703681115E1    -4.326747783825623E1    -5.296222714564512E1
 9.981675000000000E7    -4.025441206571514E1    -4.581353650222614E1    -8.106360346380763E-2   -3.683140896731325E1    -7.898163586660900E-2   -3.683398579439287E1    -4.319136887309092E1    -5.322614437375351E1
 1.001916250000000E8    -4.033947698742760E1    -4.663519798887680E1    -8.010897821837379E-2   -3.697207954606365E1    -7.886567008866627E-2   -3.697158747012235E1    -4.325833135470170E1    -5.355995438793245E1
 1.005665000000000E8    -4.039241892595413E1    -4.697369748210804E1    -7.948626773538509E-2   -3.710589042007606E1    -7.927867777696772E-2   -3.711219578802702E1    -4.319637460863200E1    -5.408843117848905E1
 1.009413750000000E8    -4.031853764701957E1    -4.805713080813774E1    -7.940852715868073E-2   -3.724797009747815E1    -7.915126802849451E-2   -3.724875458088154E1    -4.334901181074088E1    -5.480206242774919E1
 1.013162500000000E8    -4.033544323572919E1    -4.850311775730038E1    -8.020843253410784E-2   -3.738459657165917E1    -7.915558082741350E-2   -3.738629244671877E1    -4.326735253957911E1    -5.534638479537199E1
 1.016911250000000E8    -4.034345442845337E1    -4.940122542235446E1    -8.024522237004378E-2   -3.752298633086299E1    -7.792595078603164E-2   -3.752517787581779E1    -4.313593704199879E1    -5.650847136230144E1
 1.020660000000000E8    -4.030837599319111E1    -4.921912282829738E1    -7.905521159871454E-2   -3.766125320048979E1    -7.910037704566933E-2   -3.766166411650628E1    -4.311856348996399E1    -5.744534071108036E1
 1.024408750000000E8    -4.037874727479250E1    -4.916299345840883E1    -8.009089511993929E-2   -3.780093066824870E1    -7.904820368370355E-2   -3.779919446605929E1    -4.300126552507624E1    -5.777711752687446E1
 1.028157500000000E8    -4.037234465922403E1    -5.023997673735589E1    -8.072542200522395E-2   -3.793546227896885E1    -7.910592063622768E-2   -3.793699877326291E1    -4.297688613250807E1    -5.899104426807160E1
 1.031906250000000E8    -4.040594706699919E1    -5.090975742266522E1    -8.015240270340054E-2   -3.807215673631639E1    -7.988511276705924E-2   -3.807297807078381E1    -4.288679343886350E1    -5.899351119357492E1
 1.035655000000000E8    -4.037574866060134E1    -5.140666970566939E1    -8.036490019500686E-2   -3.820729681441564E1    -7.921453778263532E-2   -3.820925527945131E1    -4.283035583355306E1    -5.997714639711631E1
 1.039403750000000E8    -4.033311104309280E1    -5.145429688724082E1    -8.004657062768733E-2   -3.834719690961061E1    -7.957687487978510E-2   -3.834458592642690E1    -4.279233879458083E1    -6.005358166487184E1
 1.043152500000000E8    -4.033892502237726E1    -5.222331008616093E1    -8.061918227201821E-2   -3.848490236322868E1    -8.011023437702594E-2   -3.848528888665505E1    -4.282582807855904E1    -6.088901841772672E1
 1.046901250000000E8    -4.027047213550454E1    -5.328451653876517E1    -8.088258850214713E-2   -3.862663071851471E1    -7.956914066370795E-2   -3.862410538267576E1    -4.288714532209895E1    -6.039930505393227E1
 1.050650000000000E8    -4.031401507849942E1    -5.357440126564930E1    -8.031627679570891E-2   -3.876346206013204E1    -7.938202716611450E-2   -3.875954652238011E1    -4.276621888005620E1    -6.165938104173374E1
 1.054398750000000E8    -4.026978622209303E1    -5.329964296130933E1    -8.025129781712299E-2   -3.889688252696597E1    -7.983252293107111E-2   -3.889524147553156E1    -4.262875958114306E1    -6.207033951463807E1
 1.058147500000000E8    -4.021485426997746E1    -5.382334966990091E1    -8.069530529174022E-2   -3.903397820968411E1    -7.952973394621075E-2   -3.903278026223776E1    -4.258486586204900E1    -6.208108145480289E1
 1.061896250000000E8    -4.028725480276453E1    -5.449068651921675E1    -8.040581393885039E-2   -3.916949265909073E1    -7.896923393108399E-2   -3.916970816351305E1    -4.244107621779530E1    -6.321788723532194E1
 1.065645000000000E8    -4.028149772754756E1    -5.414229218519198E1    -7.953628943891185E-2   -3.930760073261023E1    -7.930305675071689E-2   -3.930578736760003E1    -4.244892634023765E1    -6.427017096434550E1
 1.069393750000000E8    -4.032121401525843E1    -5.479286670812215E1    -8.045744338420810E-2   -3.944739100114955E1    -7.914791719032525E-2   -3.944425776026944E1    -4.254498308146046E1    -6.517242218207149E1
 1.073142500000000E8    -4.034514174459709E1    -5.521988372346731E1    -8.111957799398509E-2   -3.958197230577020E1    -7.963140178736902E-2   -3.958273611026549E1    -4.263050544908839E1    -6.564121394865148E1
 1.076891250000000E8    -4.026437085162202E1    -5.498756080289749E1    -8.154507000781200E-2   -3.972051349249195E1    -8.091622728393517E-2   -3.971853160619597E1    -4.242878665930615E1    -6.530240244390822E1
 1.080640000000000E8    -4.015495585807734E1    -5.521274855992267E1    -8.171288380154801E-2   -3.985509592138396E1    -8.035428641391176E-2   -3.985490484984281E1    -4.249609708503139E1    -6.626790742803965E1
 1.084388750000000E8    -4.038205925400443E1    -5.577744117641547E1    -8.060495641304899E-2   -3.999818214010092E1    -8.081658801544181E-2   -3.999363386634725E1    -4.237044759339966E1    -6.503302111608150E1
 1.088137500000000E8    -4.041572431261184E1    -5.548041416117328E1    -8.166594449648548E-2   -4.013234395986956E1    -7.911518567046236E-2   -4.013366376841898E1    -4.253192582430130E1    -6.562462346646021E1
 1.091886250000000E8    -4.033808672486248E1    -5.541260582403792E1    -8.198098897293003E-2   -4.027195710031273E1    -8.044613239731474E-2   -4.026945424261199E1    -4.252638424701967E1    -6.660665051870325E1
 1.095635000000000E8    -4.024238126733046E1    -5.538909667814350E1    -8.080177842503576E-2   -4.040968317239968E1    -8.028050008767049E-2   -4.040708674026078E1    -4.253840704629971E1    -6.732206611520562E1
 1.099383750000000E8    -4.022582718702562E1    -5.576752996495668E1    -8.025491262190057E-2   -4.054964664039193E1    -8.030978148242711E-2   -4.054738423858696E1    -4.247157105775670E1    -6.786943709902776E1
 1.103132500000000E8    -4.014320297157702E1    -5.591007935704430E1    -8.032117099795262E-2   -4.068792190269640E1    -8.028889912755117E-2   -4.068400706741956E1    -4.245581671055398E1    -6.720009741798697E1
 1.106881250000000E8    -4.034442281587275E1    -5.584427187543821E1    -8.064985565192068E-2   -4.082372724046319E1    -8.011960313853379E-2   -4.082356088219509E1    -4.223884124706044E1    -6.749997963551375E1
 1.110630000000000E8    -4.022504218351308E1    -5.623405796509940E1    -8.162599694124355E-2   -4.095973141253780E1    -8.039941794859964E-2   -4.096114491515969E1    -4.252050259642553E1    -6.790054421538493E1
 1.114378750000000E8    -4.029324216725801E1    -5.633788145229499E1    -8.076517258519628E-2   -4.110140848041604E1    -8.084488614784879E-2   -4.109966617839164E1    -4.267657423989771E1    -6.761752508375955E1
 1.118127500000000E8    -4.026344081793727E1    -5.652812087108462E1    -8.084024073213283E-2   -4.123889340438186E1    -8.120049296622656E-2   -4.123688817261988E1    -4.253303799980905E1    -6.730183207263158E1
 1.121876250000000E8    -4.010001048349372E1    -5.640182605780868E1    -8.112823176368705E-2   -4.137511870368163E1    -7.962408714061905E-2   -4.137625846209985E1    -4.275055192366033E1    -6.773983146525697E1
 1.125625000000000E8    -4.017327866331709E1    -5.648958600055953E1    -8.087153053648899E-2   -4.151645210023963E1    -8.005650238700487E-2   -4.151333782612259E1    -4.242247759779243E1    -6.725675191668067E1
 1.129373750000000E8    -4.011501720352331E1    -5.748209673783413E1    -8.074022560136702E-2   -4.165127043989985E1    -8.124063669172110E-2   -4.164946336669140E1    -4.271336570631944E1    -6.778579876860961E1
 1.133122500000000E8    -4.007497610636655E1    -5.678976860561882E1    -8.188858299273546E-2   -4.178952753749734E1    -8.145621163431359E-2   -4.178975283431163E1    -4.272000054056814E1    -6.841024319985131E1
 1.136871250000000E8    -4.005304349877080E1    -5.746068281328650E1    -8.170268857536189E-2   -4.193040248676824E1    -8.126241345749596E-2   -4.192806948493315E1    -4.269645515651398E1    -6.839118949569999E1
 1.140620000000000E8    -3.999619195451268E1    -5.694049618783990E1    -8.170715415536828E-2   -4.206593643685455E1    -8.130430729730950E-2   -4.206922579233129E1    -4.273509073485216E1    -6.858300888884202E1
 1.144368750000000E8    -4.000137634398514E1    -5.703364778532047E1    -8.201898244418962E-2   -4.220734059756508E1    -8.041463486770616E-2   -4.220726887131205E1    -4.292148503935881E1    -6.944394549675043E1
 1.148117500000000E8    -3.998779806039081E1    -5.691895804761008E1    -8.214622713401663E-2   -4.234700336108904E1    -8.139677765819912E-2   -4.234577668599901E1    -4.292967537308409E1    -6.909766225778550E1
 1.151866250000000E8    -3.995138208980443E1    -5.711365426280410E1    -8.199574353028900E-2   -4.248727994500381E1    -8.236642906691767E-2   -4.248205375546442E1    -4.305769981590764E1    -6.893922089741426E1
 1.155615000000000E8    -3.993201920139769E1    -5.653801284340607E1    -8.181241205381655E-2   -4.262306701120826E1    -8.184545829839268E-2   -4.262189971378935E1    -4.310968343250603E1    -6.767340920066597E1
 1.159363750000000E8    -3.995158237662319E1    -5.618143842059558E1    -8.249503647699766E-2   -4.276243915071260E1    -8.126494686931429E-2   -4.276050119017312E1    -4.287993613372124E1    -6.694283596535712E1
 1.163112500000000E8    -3.988725708389980E1    -5.645803965392432E1    -8.249343783680031E-2   -4.289932180693577E1    -8.102446732173277E-2   -4.289831138706882E1    -4.301800134060468E1    -6.732008317975419E1
 1.166861250000000E8    -3.981251544994017E1    -5.594660286684806E1    -8.317621550475771E-2   -4.304051557280368E1    -8.209125720584287E-2   -4.303424585361000E1    -4.311695463328708E1    -6.874355366082938E1
 1.170610000000000E8    -3.992867295103427E1    -5.599213461476155E1    -8.245814368157600E-2   -4.317715186889921E1    -8.137873677618311E-2   -4.317399706640300E1    -4.307885626045459E1    -6.921243727904024E1
 1.174358750000000E8    -3.972204969623987E1    -5.627548543340746E1    -8.255944646177639E-2   -4.331358931367250E1    -8.193717606883895E-2   -4.331443973595651E1    -4.324325709250011E1    -6.809405435375898E1
 1.178107500000000E8    -3.966351722390225E1    -5.581247649520105E1    -8.259285991437355E-2   -4.345530810617639E1    -8.153852364820359E-2   -4.345179187697035E1    -4.323465183461223E1    -6.774635142425967E1
 1.181856250000000E8    -3.957323196023654E1    -5.567367667679689E1    -8.196395262662612E-2   -4.359274226381609E1    -8.070357973216180E-2   -4.359063097441052E1    -4.358281352991875E1    -6.812672969581253E1
 1.185605000000000E8    -3.974046166400369E1    -5.512515267374155E1    -8.245067882044835E-2   -4.373197974109745E1    -8.141591980564065E-2   -4.372770591376475E1    -4.324706041459738E1    -6.728818074591528E1
 1.189353750000000E8    -3.965776798690501E1    -5.484844061578929E1    -8.215036277414932E-2   -4.386823280308429E1    -8.172034957170650E-2   -4.386536115033600E1    -4.347748917208370E1    -6.784829845112968E1
 1.193102500000000E8    -3.962325788392188E1    -5.506148124257800E1    -8.245105350827647E-2   -4.400654857816694E1    -8.119892022369121E-2   -4.400547556245966E1    -4.357921602464816E1    -6.776287515008805E1
 1.196851250000000E8    -3.950088571712707E1    -5.529695537494823E1    -8.325609677953093E-2   -4.414381598281505E1    -8.066650421145689E-2   -4.414586758656697E1    -4.373994339985241E1    -6.821319044097747E1
 1.200600000000000E8    -3.957050644775772E1    -5.477349490936289E1    -8.094760054923893E-2   -4.427841370800229E1    -8.120170989608862E-2   -4.428245380175245E1    -4.383311635666572E1    -6.969523093824093E1
 1.204348750000000E8    -3.960986384702429E1    -5.457250270400817E1    -8.112783705238304E-2   -4.441560396625230E1    -8.161678227143715E-2   -4.441812131874271E1    -4.398956750673069E1    -6.837586966856753E1
 1.208097500000000E8    -3.958445022503988E1    -5.428729320772914E1    -8.102721478478453E-2   -4.455632701611399E1    -8.106238488321962E-2   -4.455759434596046E1    -4.406852553671733E1    -6.781453268381358E1
 1.211846250000000E8    -3.958827333076334E1    -5.365741527015687E1    -7.983177395566166E-2   -4.469336850873633E1    -8.051879715636218E-2   -4.469514000377595E1    -4.432028415458543E1    -6.678476451211124E1
 1.215595000000000E8    -3.951562846186869E1    -5.394428777088859E1    -8.131351661256585E-2   -4.483166538588524E1    -7.943441585603249E-2   -4.483463276689135E1    -4.408137846121000E1    -6.723760234735575E1
 1.219343750000000E8    -3.950468158969769E1    -5.331892291351308E1    -8.076504469151410E-2   -4.497157279300554E1    -7.977377000418527E-2   -4.497373481194477E1    -4.413400911392944E1    -6.802144402032398E1
 1.223092500000000E8    -3.938503065001596E1    -5.365130784497578E1    -7.949038140138524E-2   -4.510955107004870E1    -8.045695076446324E-2   -4.511313072914407E1    -4.420461659868942E1    -6.649274171861370E1
 1.226841250000000E8    -3.953920634873310E1    -5.260038818398061E1    -8.038572871739066E-2   -4.524637100082637E1    -8.056412191458313E-2   -4.525003587963685E1    -4.438429558274716E1    -6.649994108158199E1
 1.230590000000000E8    -3.942772794592592E1    -5.313576702060285E1    -8.192501274713314E-2   -4.538381332026468E1    -8.094674382343664E-2   -4.538676713172232E1    -4.423030828213090E1    -6.713518072001146E1
 1.234338750000000E8    -3.939590345525014E1    -5.297631598906005E1    -8.111191064874085E-2   -4.552265640292082E1    -8.015034490281070E-2   -4.552423616148166E1    -4.441299768071846E1    -6.670199669473574E1
 1.238087500000000E8    -3.943387004445387E1    -5.332315788824200E1    -8.021189813781417E-2   -4.565965196478736E1    -7.968086453727331E-2   -4.565970544307015E1    -4.470079797538244E1    -6.736651880266811E1
 1.241836250000000E8    -3.949132157880274E1    -5.285251524200140E1    -8.175822708388872E-2   -4.579836797894686E1    -8.002455418962115E-2   -4.580129027688746E1    -4.479186425937709E1    -6.621280152152671E1
 1.245585000000000E8    -3.937186538615070E1    -5.268491412221670E1    -8.135087740454700E-2   -4.593796166768028E1    -8.101556247261284E-2   -4.594017264247119E1    -4.478608547973548E1    -6.569721109250621E1
 1.249333750000000E8    -3.935747695650105E1    -5.278308800466731E1    -8.198903666768562E-2   -4.607393548816840E1    -8.084498367650558E-2   -4.607864336523439E1    -4.499238280315556E1    -6.615542254168435E1
 1.253082500000000E8    -3.937672617246074E1    -5.232783633482191E1    -8.115948091894983E-2   -4.621068670690145E1    -8.094983310836393E-2   -4.621696014212990E1    -4.468557955866356E1    -6.600607627791854E1
 1.256831250000000E8    -3.921993910065248E1    -5.226137695069376E1    -8.126329010707896E-2   -4.635146959566895E1    -8.037169666981016E-2   -4.635530875904922E1    -4.476669078888782E1    -6.678627525320269E1
 1.260580000000000E8    -3.929005007958040E1    -5.171625744561357E1    -8.108304572853121E-2   -4.648568228385218E1    -8.080270739357953E-2   -4.649276974590187E1    -4.488736103597920E1    -6.612216840392642E1
 1.264328750000000E8    -3.926118184928482E1    -5.232062351269698E1    -8.209450005880713E-2   -4.662752555416917E1    -8.019467962639985E-2   -4.662947868539909E1    -4.505569973503768E1    -6.591066573252635E1
 1.268077500000000E8    -3.912068611459706E1    -5.209653779831483E1    -8.227058370181346E-2   -4.676923967454404E1    -8.036740811456369E-2   -4.676868193189812E1    -4.511315415955589E1    -6.648973848822259E1
 1.271826250000000E8    -3.916423923347687E1    -5.195320177320371E1    -8.226016256001613E-2   -4.690091165238460E1    -7.972486359497505E-2   -4.691140429025416E1    -4.511530172418732E1    -6.565934406708517E1
 1.275575000000000E8    -3.912804255663771E1    -5.220412287379372E1    -8.248826187846497E-2   -4.703824844838206E1    -8.101529371130664E-2   -4.704567265480308E1    -4.500221285421733E1    -6.582279467977318E1
 1.279323750000000E8    -3.914742558311084E1    -5.183927269176452E1    -8.145540771898753E-2   -4.717613570968697E1    -8.108399566353454E-2   -4.718584568822553E1    -4.492734055569863E1    -6.536898744632333E1
 1.283072500000000E8    -3.902539833991303E1    -5.172538514631940E1    -8.165138359841279E-2   -4.731858988050219E1    -8.112897821435641E-2   -4.731857737028042E1    -4.531117564004557E1    -6.599595049189520E1
 1.286821250000000E8    -3.898487398603529E1    -5.183196089937107E1    -8.191674607379273E-2   -4.745475017906661E1    -8.152554630880821E-2   -4.745712124287191E1    -4.525369156841055E1    -6.578538196987549E1
 1.290570000000000E8    -3.904201737383072E1    -5.166507407010713E1    -8.325376508767664E-2   -4.759168411877769E1    -8.000282988332030E-2   -4.759642546665647E1    -4.533785693932892E1    -6.575870435467493E1
 1.294318750000000E8    -3.897242206061344E1    -5.209629604589724E1    -8.281177667216594E-2   -4.772686868180129E1    -8.124856096171550E-2   -4.773322938659843E1    -4.553056449367848E1    -6.587390073219768E1
 1.298067500000000E8    -3.902321496776835E1    -5.190871931848982E1    -8.218818482605866E-2   -4.786579875425218E1    -8.146383733756432E-2   -4.787112859490300E1    -4.567060857787521E1    -6.614388711543522E1
 1.301816250000000E8    -3.909599192517310E1    -5.211153757338118E1    -8.276580176855763E-2   -4.800700032874845E1    -8.132503623795595E-2   -4.800738517416585E1    -4.552169519241125E1    -6.591338495706351E1
 1.305565000000000E8    -3.891553600659527E1    -5.214904933766504E1    -8.282281720813706E-2   -4.814076171178612E1    -8.222494045253533E-2   -4.814798772619734E1    -4.578500020987987E1    -6.580542547228410E1
 1.309313750000000E8    -3.886002970997672E1    -5.211938902519054E1    -8.240164804853495E-2   -4.828279749345840E1    -8.115837579189977E-2   -4.828345142657928E1    -4.570878147210824E1    -6.655576510480056E1
 1.313062500000000E8    -3.880156252821636E1    -5.202989628333324E1    -8.232864669314445E-2   -4.841787550347829E1    -8.128615176797817E-2   -4.842212458506233E1    -4.585426043011297E1    -6.454592360238566E1
 1.316811250000000E8    -3.883454338228002E1    -5.147809446799559E1    -8.253880646743621E-2   -4.855659356369228E1    -8.201116916666494E-2   -4.855857085388732E1    -4.575066501012258E1    -6.499720896937222E1
 1.320560000000000E8    -3.877550007323530E1    -5.116893003956073E1    -8.366710236046425E-2   -4.869354803839936E1    -8.162506561740170E-2   -4.869864335713189E1    -4.586131880253614E1    -6.540944678493661E1
 1.324308750000000E8    -3.880675090752467E1    -5.165841501599208E1    -8.394270081494680E-2   -4.882872235277055E1    -8.121688965151241E-2   -4.883585193434885E1    -4.565554445306652E1    -6.546565739561670E1
 1.328057500000000E8    -3.877469171251918E1    -5.167835057476256E1    -8.217214901034248E-2   -4.897000064388301E1    -8.188300585227576E-2   -4.897050061570690E1    -4.580075194978495E1    -6.601057322439596E1
 1.331806250000000E8    -3.878600379449939E1    -5.111780548874978E1    -8.193510630915142E-2   -4.910462262470829E1    -8.275844121503272E-2   -4.911075256290465E1    -4.567849661538850E1    -6.529210665738786E1
 1.335555000000000E8    -3.878006714044984E1    -5.176667627472313E1    -8.303228839044495E-2   -4.924448510960008E1    -8.248350124159377E-2   -4.924685151027261E1    -4.570998949612616E1    -6.496040680065153E1
 1.339303750000000E8    -3.880069214091145E1    -5.157252810647545E1    -8.421650255302068E-2   -4.938136003950829E1    -8.181203468221097E-2   -4.938723745288719E1    -4.575642830127517E1    -6.645724120286101E1
 1.343052500000000E8    -3.877065932867370E1    -5.248921172456976E1    -8.297234758594112E-2   -4.951950574401584E1    -8.252789237554284E-2   -4.952255965233064E1    -4.566578205854904E1    -6.627986870244106E1
 1.346801250000000E8    -3.890392863022711E1    -5.252091225904846E1    -8.237148755181133E-2   -4.966152681095456E1    -8.289529785257070E-2   -4.966250965372884E1    -4.550924384214349E1    -6.662582369639735E1
 1.350550000000000E8    -3.891795601508428E1    -5.253593998805928E1    -8.232602701098576E-2   -4.979593818142288E1    -8.288120311445552E-2   -4.979860151198123E1    -4.556433573560840E1    -6.584982677542648E1
 1.354298750000000E8    -3.888051267821766E1    -5.282227316908291E1    -8.242067986545414E-2   -4.993750337430434E1    -8.278553876237131E-2   -4.993764226930503E1    -4.559525448596534E1    -6.628201104610419E1
 1.358047500000000E8    -3.882943646009545E1    -5.223919608141329E1    -8.237609333107199E-2   -5.007212827293441E1    -8.229822355915532E-2   -5.007780999705254E1    -4.561485623485744E1    -6.629246597940532E1
 1.361796250000000E8    -3.892180110011515E1    -5.286707063142857E1    -8.311943920912364E-2   -5.021121612452266E1    -8.211395570981016E-2   -5.021636008837724E1    -4.564186395857256E1    -6.622965121118449E1
 1.365545000000000E8    -3.902340608065401E1    -5.247794291281760E1    -8.314301658130316E-2   -5.034559620659715E1    -8.285827893076263E-2   -5.035256302869517E1    -4.540195039240147E1    -6.710630113124516E1
 1.369293750000000E8    -3.899895134532380E1    -5.250775930585040E1    -8.405377844344425E-2   -5.048456283031718E1    -8.363323286786631E-2   -5.048801860521582E1    -4.527602896427810E1    -6.721209431143144E1
 1.373042500000000E8    -3.897733848556714E1    -5.286232268710097E1    -8.385133224829770E-2   -5.062168822820780E1    -8.328913207527869E-2   -5.062718781827245E1    -4.545984985900003E1    -6.737380081395126E1
 1.376791250000000E8    -3.899940790698855E1    -5.338773188636747E1    -8.426908263348083E-2   -5.076010324032480E1    -8.329561452268576E-2   -5.076523799594761E1    -4.539268672269650E1    -6.951158903376370E1
 1.380540000000000E8    -3.901962393621170E1    -5.303024929067890E1    -8.372823075867701E-2   -5.089699379427983E1    -8.374261605126145E-2   -5.090000445474085E1    -4.581559337010269E1    -7.032236146394828E1
 1.384288750000000E8    -3.900206663246133E1    -5.324122369368269E1    -8.409682818725535E-2   -5.103398267980877E1    -8.366668665737141E-2   -5.104142535334800E1    -4.556908437835850E1    -6.963902468662788E1
 1.388037500000000E8    -3.902773571883336E1    -5.306750705724418E1    -8.409113243736978E-2   -5.117706510364127E1    -8.299896712007239E-2   -5.117734065068283E1    -4.535713752085050E1    -6.933038446841938E1
 1.391786250000000E8    -3.900696618700891E1    -5.339326231729555E1    -8.408722902109125E-2   -5.131234914124369E1    -8.338627337726438E-2   -5.131734469924842E1    -4.547100673727503E1    -6.935131336468329E1
 1.395535000000000E8    -3.910931733093744E1    -5.344938523965080E1    -8.420810900200705E-2   -5.144964355811664E1    -8.361364516927138E-2   -5.145537872847682E1    -4.534274645310578E1    -6.950651109879892E1
 1.399283750000000E8    -3.908108103068080E1    -5.439066471495219E1    -8.499105249904020E-2   -5.158825676309908E1    -8.385643007071078E-2   -5.159010260843092E1    -4.525151732950216E1    -6.770035303708848E1
 1.403032500000000E8    -3.914860293884893E1    -5.450817468531103E1    -8.389954502451154E-2   -5.172479330819075E1    -8.452576244912281E-2   -5.172789992329572E1    -4.509395687356111E1    -6.897177577221480E1
 1.406781250000000E8    -3.911301068253515E1    -5.450898464235626E1    -8.444673279764912E-2   -5.186328402830846E1    -8.445519418764444E-2   -5.186777632734027E1    -4.498571912017332E1    -7.166073396966398E1
 1.410530000000000E8    -3.914877394106676E1    -5.468507401748160E1    -8.534642730959373E-2   -5.200202561998508E1    -8.452161425128721E-2   -5.200262730361995E1    -4.493791542526360E1    -7.165300990332966E1
 1.414278750000000E8    -3.913300789087926E1    -5.462575571647028E1    -8.573681322674195E-2   -5.213726628967716E1    -8.392796408139783E-2   -5.214194019929953E1    -4.499281061868438E1    -7.254600349706328E1
 1.418027500000000E8    -3.924045110785191E1    -5.432406457271285E1    -8.515757498316570E-2   -5.227224158590209E1    -8.425565134051285E-2   -5.227650937895120E1    -4.485550744922674E1    -7.066377466988429E1
 1.421776250000000E8    -3.924136733405579E1    -5.506032754368131E1    -8.509862870407603E-2   -5.241252192478742E1    -8.552981928272918E-2   -5.241436363192634E1    -4.496192277486731E1    -6.988379704103862E1
 1.425525000000000E8    -3.923395762211618E1    -5.443942345041467E1    -8.593311084247862E-2   -5.254908245274348E1    -8.518043633095415E-2   -5.255263861396642E1    -4.466457681648986E1    -7.070073719182321E1
 1.429273750000000E8    -3.928656329562263E1    -5.531984229221381E1    -8.674084984819763E-2   -5.268864502347802E1    -8.526373011606428E-2   -5.269320610169866E1    -4.432194320000760E1    -7.105893971440635E1
 1.433022500000000E8    -3.934970203929257E1    -5.560071138517889E1    -8.581394305501359E-2   -5.282631074821504E1    -8.466696439064197E-2   -5.283230443641085E1    -4.439908147980709E1    -7.145276957205513E1
 1.436771250000000E8    -3.942666144954957E1    -5.555330113763362E1    -8.573795532942952E-2   -5.296347009134911E1    -8.434458874262482E-2   -5.296851760730181E1    -4.441837823467321E1    -7.229028785665389E1
 1.440520000000000E8    -3.945656806449725E1    -5.606423427910581E1    -8.523404892658847E-2   -5.309989897709742E1    -8.496569760189186E-2   -5.310415775027547E1    -4.439901918783070E1    -7.302883900130294E1
 1.444268750000000E8    -3.942388109825708E1    -5.615564110917545E1    -8.628469474070952E-2   -5.323960923764736E1    -8.551809716858447E-2   -5.324087196426338E1    -4.442190764851293E1    -7.262455551135071E1
 1.448017500000000E8    -3.953784061380831E1    -5.646518996119468E1    -8.608393570681441E-2   -5.337745870227968E1    -8.642828070385614E-2   -5.338190571948422E1    -4.429850706335152E1    -7.064436887848350E1
 1.451766250000000E8    -3.954207441592728E1    -5.692892748938349E1    -8.676825319300283E-2   -5.351457288018561E1    -8.605029007214070E-2   -5.351777405206209E1    -4.418581689421308E1    -7.101567801812197E1
 1.455515000000000E8    -3.963466141701162E1    -5.690242030479043E1    -8.608316375872374E-2   -5.365399998673148E1    -8.705082895099978E-2   -5.365380253321464E1    -4.409990996085264E1    -7.244329080159085E1
 1.459263750000000E8    -3.976024093445110E1    -5.743144010821307E1    -8.768410212354191E-2   -5.378737544812844E1    -8.698610185922767E-2   -5.379392731749950E1    -4.402195336289934E1    -7.240768321611792E1
 1.463012500000000E8    -3.971398007692183E1    -5.729592908602555E1    -8.822756082175040E-2   -5.392894115351602E1    -8.706361908333701E-2   -5.392825253811051E1    -4.385752538135877E1    -7.332787240140290E1
 1.466761250000000E8    -3.969278745818551E1    -5.767931057149781E1    -8.760242092654442E-2   -5.406576730650038E1    -8.630099256520225E-2   -5.406814040815614E1    -4.394913535472523E1    -7.267386262962754E1
 1.470510000000000E8    -3.975568406141890E1    -5.726608259227679E1    -8.680217446246209E-2   -5.420123329608352E1    -8.627121593334965E-2   -5.420674695529682E1    -4.386973119111472E1    -7.276813328181166E1
 1.474258750000000E8    -3.984061743847318E1    -5.767925229934475E1    -8.715750359393794E-2   -5.433829154067322E1    -8.639135628394758E-2   -5.434004381117973E1    -4.357108154665359E1    -7.341590884952988E1
 1.478007500000000E8    -3.981633205090048E1    -5.805627224234068E1    -8.691378919167937E-2   -5.447487273430265E1    -8.608245219229869E-2   -5.447667848111787E1    -4.365097087432908E1    -7.286185047794632E1
 1.481756250000000E8    -3.989855985168921E1    -5.735942721874702E1    -8.693736326045932E-2   -5.461374819589595E1    -8.649810355149434E-2   -5.461774856678220E1    -4.390459518041210E1    -7.272208311680706E1
 1.485505000000000E8    -4.002002763764318E1    -5.765621309249539E1    -8.753985478186850E-2   -5.475260564775699E1    -8.667064229735259E-2   -5.475655715478455E1    -4.362591179698683E1    -7.308297698350627E1
 1.489253750000000E8    -3.992649806131892E1    -5.899834238213142E1    -8.730378457941532E-2   -5.489067686249331E1    -8.693682914201319E-2   -5.489313312962119E1    -4.353984007162257E1    -7.241077081054682E1
 1.493002500000000E8    -4.005795605237527E1    -5.849263768228500E1    -8.807503884026611E-2   -5.502989054768970E1    -8.729442579172743E-2   -5.502991515909201E1    -4.339650893994002E1    -7.313856043066851E1
 1.496751250000000E8    -4.008391285437717E1    -5.906229917892495E1    -8.853921225940270E-2   -5.516792659569352E1    -8.761633052258411E-2   -5.516941179217703E1    -4.321624781275746E1    -7.315756378891544E1
 1.500500000000000E8    -4.007575310400735E1    -6.006623789488252E1    -8.830564724203127E-2   -5.530231821168351E1    -8.746402745282143E-2   -5.530486666994582E1    -4.323761753051480E1    -7.232827214600567E1
 1.504248750000000E8    -4.009485419274398E1    -5.984719665260328E1    -8.782426752665599E-2   -5.544163198699219E1    -8.770016168526529E-2   -5.544109961497003E1    -4.318657028247610E1    -7.293391667241546E1
 1.507997500000000E8    -4.012412149872650E1    -5.942757945575037E1    -8.867150459954828E-2   -5.557617722222886E1    -8.732642692000944E-2   -5.558046250693870E1    -4.317361129589879E1    -7.324355741778236E1
 1.511746250000000E8    -4.014876638098856E1    -5.893798608507448E1    -8.857448718942654E-2   -5.571074606810748E1    -8.678665217539930E-2   -5.571771282255244E1    -4.315680667238867E1    -7.351284027801331E1
 1.515495000000000E8    -4.026336722593607E1    -5.995387775980260E1    -8.788204445855677E-2   -5.584958525985431E1    -8.826787635748945E-2   -5.585538231807464E1    -4.302216208624401E1    -7.266427065171635E1
 1.519243750000000E8    -4.027065497865750E1    -6.039948949500414E1    -8.787090442384564E-2   -5.598145485772704E1    -8.761713215301931E-2   -5.598950066065706E1    -4.276777199475043E1    -7.363810573474449E1
 1.522992500000000E8    -4.035944106290867E1    -6.054948914506239E1    -8.870152464696077E-2   -5.612232027992064E1    -8.736628683203282E-2   -5.612652466595091E1    -4.274272049710301E1    -7.301320251229561E1
 1.526741250000000E8    -4.028227037850547E1    -6.036645289745491E1    -8.775539870506570E-2   -5.626148344209794E1    -8.739532152077120E-2   -5.626644442033690E1    -4.276581423557236E1    -7.221537768965767E1
 1.530490000000000E8    -4.048739867365938E1    -6.026793400812122E1    -8.800492886519284E-2   -5.640233663913106E1    -8.699916242501482E-2   -5.640504886182587E1    -4.279867443251163E1    -7.056348696150368E1
 1.534238750000000E8    -4.047564467353495E1    -6.100681567332617E1    -8.826417209851578E-2   -5.653547119445982E1    -8.841076128218057E-2   -5.653795639296305E1    -4.264069542218632E1    -7.179144120759641E1
 1.537987500000000E8    -4.049488724303353E1    -6.098708922093885E1    -8.822202122129551E-2   -5.667032158014512E1    -8.793051968506499E-2   -5.667567230986608E1    -4.261865583729844E1    -7.023432795886066E1
 1.541736250000000E8    -4.052418561139429E1    -6.113398642993128E1    -8.850148519072119E-2   -5.680699315436301E1    -8.821374890383220E-2   -5.681020522877577E1    -4.248289071174965E1    -7.116921996524188E1
 1.545485000000000E8    -4.053425408386283E1    -6.123303291775063E1    -8.878916448491946E-2   -5.694699352405818E1    -8.767751363012054E-2   -5.694928567103324E1    -4.252767179874624E1    -7.149616843944219E1
 1.549233750000000E8    -4.053246315782967E1    -6.092292530129809E1    -8.844869877119237E-2   -5.708587811270203E1    -8.842750425814672E-2   -5.709133145687763E1    -4.248565344426669E1    -6.986587628523765E1
 1.552982500000000E8    -4.061841808395573E1    -6.161132856688469E1    -8.934130279820146E-2   -5.722466394933580E1    -8.794001304774061E-2   -5.722711444133544E1    -4.241886126876012E1    -7.041223414114903E1
 1.556731250000000E8    -4.074859553095201E1    -6.118316691354681E1    -8.790004717636661E-2   -5.736570959937606E1    -8.809253996603716E-2   -5.736501679919232E1    -4.268465014459658E1    -7.140750187600648E1
 1.560480000000000E8    -4.082092609592964E1    -6.248709319607438E1    -8.819783707582610E-2   -5.750046448893487E1    -8.766197524681948E-2   -5.750032980095011E1    -4.251951501061883E1    -7.102953634496362E1
 1.564228750000000E8    -4.065094360939327E1    -6.208073746211065E1    -8.852836475205093E-2   -5.763595428388603E1    -8.749663605743596E-2   -5.764011673410051E1    -4.243167520626837E1    -7.021218972106945E1
 1.567977500000000E8    -4.077423013772146E1    -6.210438999347671E1    -8.867363193641459E-2   -5.777591319374451E1    -8.836353384478489E-2   -5.777773333651940E1    -4.249658513818538E1    -6.945151853534418E1
 1.571726250000000E8    -4.070009378915594E1    -6.245006780824767E1    -8.897329867276196E-2   -5.790995316207994E1    -8.849503705207892E-2   -5.791505203178279E1    -4.231765166084354E1    -6.990021992047649E1
 1.575475000000000E8    -4.076637704266125E1    -6.267773384816059E1    -8.864151115569609E-2   -5.804924561931975E1    -8.795705356773466E-2   -5.805157682232044E1    -4.225299460128983E1    -7.008739673768281E1
 1.579223750000000E8    -4.082980284001849E1    -6.273186719658007E1    -8.862922989282243E-2   -5.818382981636110E1    -8.777610849094689E-2   -5.819021695091671E1    -4.208508956883385E1    -7.109008461387302E1
 1.582972500000000E8    -4.077178597778170E1    -6.347981569405577E1    -8.916275784957708E-2   -5.832295531253358E1    -8.779505507762370E-2   -5.832606073253002E1    -4.203067271038843E1    -7.069167451274208E1
 1.586721250000000E8    -4.088865834544201E1    -6.273357471733457E1    -8.899501566928468E-2   -5.846230737745121E1    -8.875783996148537E-2   -5.846460954470249E1    -4.212107304256008E1    -7.025365341294167E1
 1.590470000000000E8    -4.093484828629998E1    -6.307742356372465E1    -8.982413360097560E-2   -5.860036416464881E1    -8.921609372265825E-2   -5.860402974411021E1    -4.231140132267346E1    -6.969174018522781E1
 1.594218750000000E8    -4.082449580180972E1    -6.342269776467640E1    -8.941600321904065E-2   -5.873906635951566E1    -8.894885277658664E-2   -5.873833848474420E1    -4.215830721263951E1    -6.895551321522302E1
 1.597967500000000E8    -4.093338718836915E1    -6.345063154489785E1    -8.976309042030708E-2   -5.887660657600097E1    -8.819934852635430E-2   -5.887987322557053E1    -4.216151384168966E1    -6.982580198664253E1
 1.601716250000000E8    -4.089668641184431E1    -6.343011105140856E1    -8.943305064350945E-2   -5.901510381727383E1    -8.820981059024416E-2   -5.901747005695142E1    -4.218691740743770E1    -6.928588829013206E1
 1.605465000000000E8    -4.105256453092846E1    -6.431911996077913E1    -8.820808374339834E-2   -5.915367334065819E1    -8.778251380845661E-2   -5.915599261611517E1    -4.223304759849503E1    -6.818775576605300E1
 1.609213750000000E8    -4.102443064022542E1    -6.501653637005923E1    -8.820117226030214E-2   -5.929537042484971E1    -8.899442338195994E-2   -5.929062100373367E1    -4.227898222036251E1    -6.779939764550824E1
 1.612962500000000E8    -4.096976249629402E1    -6.569210467646859E1    -8.901490901796627E-2   -5.942855347340471E1    -8.924205012224372E-2   -5.942925018574833E1    -4.224728768673990E1    -6.855421790342686E1
 1.616711250000000E8    -4.100708990002465E1    -6.473553333119683E1    -8.960892713462765E-2   -5.956142412567866E1    -8.851475333678388E-2   -5.956625126525976E1    -4.212487447521782E1    -6.852498338113934E1
 1.620460000000000E8    -4.095646704634135E1    -6.471981073110094E1    -8.994678071914701E-2   -5.970198999527907E1    -8.803544358905262E-2   -5.970321678017944E1    -4.213880471211631E1    -6.907262009006526E1
 1.624208750000000E8    -4.096054399626865E1    -6.524891805915635E1    -8.943562488808211E-2   -5.983990170107235E1    -8.897531395685185E-2   -5.983904137756208E1    -4.211780944727293E1    -6.831484850511045E1
 1.627957500000000E8    -4.091464098858356E1    -6.498415417149258E1    -8.902140652261907E-2   -5.997484268692617E1    -8.906648569442481E-2   -5.998129709396763E1    -4.204155674567561E1    -6.770730623382752E1
 1.631706250000000E8    -4.095249934488049E1    -6.527099945676846E1    -8.893952539059140E-2   -6.011576375207166E1    -8.941867244967552E-2   -6.011830389675192E1    -4.215460767487383E1    -6.696600066657946E1
 1.635455000000000E8    -4.088953145380876E1    -6.501632008310899E1    -9.063331941555244E-2   -6.025467677640118E1    -8.858349387341641E-2   -6.025995577760430E1    -4.229950176533416E1    -6.757851717737249E1
 1.639203750000000E8    -4.089700524504007E1    -6.491484824819092E1    -8.942125420904203E-2   -6.039420485595471E1    -8.945282311619868E-2   -6.039729584190115E1    -4.220703150357568E1    -6.685987293162708E1
 1.642952500000000E8    -4.086300798278062E1    -6.425600972134646E1    -8.863376343951881E-2   -6.053338717031128E1    -8.891750498168106E-2   -6.053440240638569E1    -4.227029019001921E1    -6.634687356929513E1
 1.646701250000000E8    -4.084354826235578E1    -6.531584462415442E1    -8.945159311723044E-2   -6.066984707606105E1    -8.949315853469364E-2   -6.067071624759534E1    -4.229360917386973E1    -6.730685418370514E1
 1.650450000000000E8    -4.077901618718269E1    -6.541311889720166E1    -8.935502666165324E-2   -6.080428104419595E1    -8.932931266493094E-2   -6.080958100696039E1    -4.217903083329325E1    -6.648327139199384E1
 1.654198750000000E8    -4.069865612833120E1    -6.549940950152663E1    -8.954287299305458E-2   -6.094268442319213E1    -8.865385564377014E-2   -6.094532203436063E1    -4.229566718133992E1    -6.708848633859614E1
 1.657947500000000E8    -4.063382139565099E1    -6.613215299030979E1    -8.963742783364953E-2   -6.108077604270522E1    -8.934006131837918E-2   -6.108251243631950E1    -4.210613817022760E1    -6.661002674707206E1
 1.661696250000000E8    -4.062534276606684E1    -6.612407275130231E1    -8.891396254735355E-2   -6.121725870297293E1    -8.970984691014466E-2   -6.122137417343292E1    -4.235062811385698E1    -6.690523956208523E1
 1.665445000000000E8    -4.064394937846104E1    -6.708719427604392E1    -8.894160817915693E-2   -6.135697566863641E1    -8.902941324605827E-2   -6.135644590551838E1    -4.229074248738593E1    -6.692036994283137E1
 1.669193750000000E8    -4.055261416543070E1    -6.705815735959726E1    -9.003588026330772E-2   -6.149420904147340E1    -8.956483049058826E-2   -6.149566126405619E1    -4.217004475127207E1    -6.785156832276496E1
 1.672942500000000E8    -4.044591944214774E1    -6.760252771140522E1    -9.074230555926957E-2   -6.162885700515847E1    -8.941477806630857E-2   -6.163525553020041E1    -4.229174730565481E1    -6.692261368461293E1
 1.676691250000000E8    -4.049468706642229E1    -6.702331629771646E1    -8.934089648056834E-2   -6.176804851101928E1    -8.914757854646795E-2   -6.177035576556339E1    -4.248050503912692E1    -6.652283572139966E1
 1.680440000000000E8    -4.058423449970986E1    -6.665255777511419E1    -8.932745053108689E-2   -6.190663246043903E1    -8.911498140004968E-2   -6.190598970369239E1    -4.261747706226625E1    -6.657259270667414E1
 1.684188750000000E8    -4.048384479436805E1    -6.713936181151645E1    -9.005959849524861E-2   -6.204258230546193E1    -8.954694619907502E-2   -6.204520217120757E1    -4.256218706521646E1    -6.632199322571051E1
 1.687937500000000E8    -4.025840388260448E1    -6.768907779625616E1    -8.976878192624241E-2   -6.218176895647081E1    -8.944876234041974E-2   -6.218342434692623E1    -4.246084363718560E1    -6.563409569514816E1
 1.691686250000000E8    -4.029564777961868E1    -6.805528358972407E1    -8.961855908422078E-2   -6.231932250835860E1    -8.951512116190585E-2   -6.231938000870289E1    -4.261089996127006E1    -6.597327943196260E1
 1.695435000000000E8    -4.027648962563710E1    -6.807574181882916E1    -9.043795771537017E-2   -6.245799408272506E1    -8.984222227987135E-2   -6.246055941226335E1    -4.284123293910780E1    -6.598101816810215E1
 1.699183750000000E8    -4.023718642754113E1    -6.858868867091068E1    -9.036100418306314E-2   -6.259819074615849E1    -9.012578586054019E-2   -6.260422222542405E1    -4.284463536492350E1    -6.407105244610990E1
 1.702932500000000E8    -4.025997137140416E1    -6.893757581535381E1    -9.004622475874531E-2   -6.273505578327484E1    -9.032248924529239E-2   -6.273814656202377E1    -4.272340419464595E1    -6.578256911039362E1
 1.706681250000000E8    -4.015095948672950E1    -6.886515281982565E1    -9.023009672990084E-2   -6.287479704279867E1    -9.008093684793274E-2   -6.287398933074843E1    -4.269042216895031E1    -6.746244003773162E1
 1.710430000000000E8    -4.005441764339637E1    -6.849127401730205E1    -9.027312037050962E-2   -6.300997005550472E1    -8.903167547645763E-2   -6.301249553769053E1    -4.303753619842405E1    -6.690225582927481E1
 1.714178750000000E8    -4.003717443575039E1    -6.919424493950351E1    -8.960770171300450E-2   -6.314612456981657E1    -8.925587932392862E-2   -6.314902021583276E1    -4.304130031420421E1    -6.762202488648600E1
 1.717927500000000E8    -4.010746285450175E1    -6.940545871812567E1    -8.937767312621475E-2   -6.328139578581009E1    -8.984399349371175E-2   -6.328863371957340E1    -4.312621858579828E1    -6.776901941825577E1
 1.721676250000000E8    -3.997298315078677E1    -7.009913267923213E1    -8.966455449050992E-2   -6.342069383916250E1    -9.023870757357609E-2   -6.342356743408961E1    -4.319174086424450E1    -6.766031180406756E1
 1.725425000000000E8    -3.994125296226479E1    -6.993219060790217E1    -8.973414338542621E-2   -6.355847630896847E1    -8.983187728285583E-2   -6.356281953970717E1    -4.331737512487679E1    -6.615720627543138E1
 1.729173750000000E8    -3.987533137999403E1    -6.916822562618572E1    -9.120319082730036E-2   -6.369418441203452E1    -9.122680173521297E-2   -6.370166979740987E1    -4.322191118939187E1    -6.611232457129030E1
 1.732922500000000E8    -3.977761387999211E1    -6.995804719570667E1    -9.034754487388490E-2   -6.383266807654261E1    -9.023359260347472E-2   -6.383542998769418E1    -4.325860587772901E1    -6.658048095649856E1
 1.736671250000000E8    -3.978853913811665E1    -7.057653482311473E1    -9.005315916713852E-2   -6.396780015654640E1    -9.066165654219766E-2   -6.397211973376169E1    -4.326795497032356E1    -6.883860596325229E1
 1.740420000000000E8    -3.967287793616867E1    -7.107597497474995E1    -9.082633611797736E-2   -6.410273845816512E1    -8.957272460177162E-2   -6.410733842648825E1    -4.343054043358016E1    -6.942661504986710E1
 1.744168750000000E8    -3.961008426484121E1    -7.149917534518744E1    -9.117724783126580E-2   -6.423891112918946E1    -8.942842574205150E-2   -6.424689080130599E1    -4.339736089644431E1    -6.980181420491505E1
 1.747917500000000E8    -3.952941415820620E1    -7.099743567835827E1    -9.015920189477700E-2   -6.438165556611878E1    -9.027837189834023E-2   -6.438353400368221E1    -4.347478210451035E1    -7.027197050039919E1
 1.751666250000000E8    -3.939692741564603E1    -7.149185687321187E1    -8.995606745244450E-2   -6.451731420377646E1    -9.022251810252792E-2   -6.452073625110548E1    -4.375647359459006E1    -7.087270141065250E1
 1.755415000000000E8    -3.952316971702901E1    -7.250411739012362E1    -8.918134190024521E-2   -6.465912232203559E1    -8.961164641267021E-2   -6.466045394831998E1    -4.388565470644868E1    -7.004368816052020E1
 1.759163750000000E8    -3.956625162147212E1    -7.257206901005499E1    -9.038633533716420E-2   -6.479498825892340E1    -8.997293763798216E-2   -6.480209693596377E1    -4.396591171639967E1    -7.062501275683485E1
 1.762912500000000E8    -3.952996392162749E1    -7.306282323151184E1    -9.086834910089499E-2   -6.493361691245578E1    -8.983083807547212E-2   -6.494159803474001E1    -4.398815523905480E1    -7.136738349082808E1
 1.766661250000000E8    -3.949980331867349E1    -7.329149604460081E1    -9.092756531676607E-2   -6.507551357866184E1    -9.047468475068426E-2   -6.507589170441697E1    -4.398448015196908E1    -7.163979710485822E1
 1.770410000000000E8    -3.940471501938977E1    -7.373637085590364E1    -9.024547752015039E-2   -6.520965540621924E1    -9.099405624558221E-2   -6.521359088097500E1    -4.432122670518297E1    -7.102551236000097E1
 1.774158750000000E8    -3.948401429003185E1    -7.411647883264268E1    -9.111703304241471E-2   -6.534703065844560E1    -9.099643406181790E-2   -6.535413177562944E1    -4.423542441968585E1    -7.282952534362408E1
 1.777907500000000E8    -3.941167798449000E1    -7.440922760342315E1    -9.154906742406854E-2   -6.548851941030998E1    -9.000685917539916E-2   -6.549149995274705E1    -4.423867012709629E1    -7.385610155511552E1
 1.781656250000000E8    -3.935216423263217E1    -7.420650569958060E1    -9.062525322564256E-2   -6.562792047988634E1    -9.099012942933987E-2   -6.562738333632971E1    -4.433932864806431E1    -7.369813747075766E1
 1.785405000000000E8    -3.931960391198712E1    -7.534864461365105E1    -9.136724772700229E-2   -6.576416019489325E1    -9.140714577747276E-2   -6.576447769880322E1    -4.423770316405033E1    -7.403493864380599E1
 1.789153750000000E8    -3.918999677130430E1    -7.592914372369643E1    -9.156241181556546E-2   -6.589910305973406E1    -9.079760491314617E-2   -6.590318159076062E1    -4.428059965730638E1    -7.456797226783057E1
 1.792902500000000E8    -3.929198105972533E1    -7.595729600180435E1    -9.106964913160495E-2   -6.603524930897167E1    -9.046484229759519E-2   -6.604146259141720E1    -4.423001582468946E1    -7.633224388242137E1
 1.796651250000000E8    -3.930012132670414E1    -7.610157267334142E1    -9.195969656762804E-2   -6.617358319409934E1    -9.048659951019802E-2   -6.618111807710224E1    -4.446016387461574E1    -7.670190850277075E1
 1.800400000000000E8    -3.931676487200942E1    -7.679436864692124E1    -9.138208291952654E-2   -6.630997020617760E1    -9.094723712349527E-2   -6.631650589555635E1    -4.445208181690874E1    -7.745210868076225E1
 1.804148750000000E8    -3.921739923840994E1    -7.709367918352474E1    -9.251467514459945E-2   -6.644823601493025E1    -9.207052527548720E-2   -6.645432922261348E1    -4.464900523536825E1    -7.723330822123572E1
 1.807897500000000E8    -3.915949345117290E1    -7.733370125656680E1    -9.198864095973436E-2   -6.658809435903517E1    -9.182373894327066E-2   -6.659266157147701E1    -4.456193315204991E1    -7.746706364883703E1
 1.811646250000000E8    -3.918577522199132E1    -7.734315329702373E1    -9.230352000407260E-2   -6.672317732555521E1    -9.134996992281777E-2   -6.673091855630337E1    -4.469617726503294E1    -7.884842803743439E1
 1.815395000000000E8    -3.915518141325592E1    -7.827486832961762E1    -9.269553440078820E-2   -6.686149893422665E1    -9.196509661457250E-2   -6.686746558116293E1    -4.478455102683084E1    -7.881641487027289E1
 1.819143750000000E8    -3.922886915659565E1    -7.898159696714443E1    -9.260029258881192E-2   -6.699694231130596E1    -9.132900994496523E-2   -6.700094523435766E1    -4.467798446608975E1    -8.091339811614657E1
 1.822892500000000E8    -3.912655604799958E1    -7.918304629293426E1    -9.162678229052870E-2   -6.713437853472621E1    -9.150743893352022E-2   -6.713955939265873E1    -4.465721351089599E1    -8.222487935277285E1
 1.826641250000000E8    -3.902910232164822E1    -7.992849925902664E1    -9.231368270069612E-2   -6.727616096638278E1    -9.115099595038077E-2   -6.728000981755670E1    -4.468025850982567E1    -8.208084867851208E1
 1.830390000000000E8    -3.914494180252803E1    -8.049108677030074E1    -9.226009457658708E-2   -6.741451875532236E1    -9.102162404392178E-2   -6.741838135852970E1    -4.461590654594785E1    -8.259948170012547E1
 1.834138750000000E8    -3.910118294359225E1    -8.044197771827665E1    -9.249473946089640E-2   -6.755614060584989E1    -9.102117402432741E-2   -6.755656289532017E1    -4.473041054927641E1    -8.308719956382596E1
 1.837887500000000E8    -3.919478203957258E1    -8.099973380156989E1    -9.216338883009528E-2   -6.769113963958745E1    -9.124428970539733E-2   -6.769618473108534E1    -4.467662437615027E1    -8.329103697710772E1
 1.841636250000000E8    -3.918053881700432E1    -8.150462103943603E1    -9.175475791136609E-2   -6.783003552038258E1    -9.210921412734790E-2   -6.783319913771290E1    -4.471395862721299E1    -8.541947467386628E1
 1.845385000000000E8    -3.914842793121352E1    -8.184274615002641E1    -9.228911229175366E-2   -6.796786488574055E1    -9.203346377542679E-2   -6.797028884734291E1    -4.445497331654735E1    -8.715090252220817E1
 1.849133750000000E8    -3.912887847792238E1    -8.234052417063647E1    -9.298177978094956E-2   -6.810591303898734E1    -9.263786711199638E-2   -6.810647289691882E1    -4.448299299659347E1    -8.698929130049738E1
 1.852882500000000E8    -3.909279766313107E1    -8.279678953436635E1    -9.308796075000321E-2   -6.824112375574843E1    -9.291688146655552E-2   -6.824255241430767E1    -4.455952282710143E1    -8.798909608113598E1
 1.856631250000000E8    -3.910610001691748E1    -8.303884743389230E1    -9.335696336654015E-2   -6.837866520893371E1    -9.242775535466177E-2   -6.838113784380842E1    -4.441327943282130E1    -8.837253313648819E1
 1.860380000000000E8    -3.910668937028739E1    -8.308433376987981E1    -9.316015230842314E-2   -6.851735766454463E1    -9.300214705666775E-2   -6.852138671044082E1    -4.421933012795967E1    -8.971958417300938E1
 1.864128750000000E8    -3.919721282371321E1    -8.394794934762126E1    -9.290566097665572E-2   -6.865391836879851E1    -9.319534790961151E-2   -6.865873801454033E1    -4.425294522179853E1    -9.119768570308142E1
 1.867877500000000E8    -3.916613127033827E1    -8.495762475934616E1    -9.295094647146208E-2   -6.879058627080788E1    -9.286650440937168E-2   -6.879390921959371E1    -4.406752253560099E1    -9.156328883867687E1
 1.871626250000000E8    -3.920488936654972E1    -8.470441002881657E1    -9.268788375850709E-2   -6.892946308689098E1    -9.352357891817308E-2   -6.892851416366452E1    -4.389422331287859E1    -9.250651187092426E1
 1.875375000000000E8    -3.916520766684049E1    -8.546589586765576E1    -9.293680065767185E-2   -6.906168697977503E1    -9.363660064070509E-2   -6.906728570803872E1    -4.399563898627492E1    -9.250286665732901E1
 1.879123750000000E8    -3.924991159650887E1    -8.601924761292084E1    -9.324906431716012E-2   -6.919821969670105E1    -9.316186425925778E-2   -6.920228752886469E1    -4.390447187919175E1    -9.416762951013052E1
 1.882872500000000E8    -3.922948983123744E1    -8.712726667582004E1    -9.332490064281550E-2   -6.933913653948913E1    -9.281660865175420E-2   -6.934231068880669E1    -4.377682133971818E1    -9.500098521755807E1
 1.886621250000000E8    -3.935444386726341E1    -8.759195170544621E1    -9.329579210735477E-2   -6.947748416949393E1    -9.310645055087913E-2   -6.947737520514698E1    -4.364063849720839E1    -9.578562520423834E1
 1.890370000000000E8    -3.939190143506259E1    -8.833989427411856E1    -9.373481583808699E-2   -6.961815064355436E1    -9.328379413139945E-2   -6.961922925390415E1    -4.349298413643510E1    -9.686195958241878E1
 1.894118750000000E8    -3.932223805162088E1    -8.938513926430919E1    -9.432665856390077E-2   -6.975205223908534E1    -9.433283828369861E-2   -6.975583055132039E1    -4.357140196196567E1    -9.700130221263103E1
 1.897867500000000E8    -3.932213589209677E1    -8.938833535361411E1    -9.421380877983385E-2   -6.989083952053004E1    -9.374348927528581E-2   -6.989449035576901E1    -4.339363032912465E1    -9.710465637655882E1
 1.901616250000000E8    -3.929412236112312E1    -8.990811513794985E1    -9.409977825370569E-2   -7.002987712749470E1    -9.326083095804584E-2   -7.003100930155483E1    -4.331255045019095E1    -9.820616691416738E1
 1.905365000000000E8    -3.945041222680348E1    -9.007664449142236E1    -9.369157157522219E-2   -7.016552048790416E1    -9.286446651154273E-2   -7.017088718027618E1    -4.320050790779510E1    -9.905296878859096E1
 1.909113750000000E8    -3.950043924101944E1    -9.151901656459050E1    -9.430000971120228E-2   -7.030236182915819E1    -9.367945014707016E-2   -7.030900802877507E1    -4.299255401300427E1    -1.004382631612621E2
 1.912862500000000E8    -3.955271643104383E1    -9.222877873921696E1    -9.493566415661808E-2   -7.043983839488894E1    -9.504739878083188E-2   -7.044666174961888E1    -4.301725205860386E1    -9.859074491926596E1
 1.916611250000000E8    -3.959385779373309E1    -9.300071404050331E1    -9.534414723141349E-2   -7.057971176783109E1    -9.517512379432957E-2   -7.058430391555923E1    -4.310258479910280E1    -9.805581475615155E1
 1.920360000000000E8    -3.969352200970985E1    -9.391675650353567E1    -9.634294994971702E-2   -7.071798019624674E1    -9.529143742930657E-2   -7.072306140008897E1    -4.295138968317937E1    -9.788479041601124E1
 1.924108750000000E8    -3.965036464448574E1    -9.446286758217795E1    -9.497782644793398E-2   -7.085752964707531E1    -9.569421041262695E-2   -7.086108842872062E1    -4.279140787296715E1    -9.841945219988693E1
 1.927857500000000E8    -3.970168103067532E1    -9.394154047348012E1    -9.430074912955126E-2   -7.099625159414757E1    -9.396416952749752E-2   -7.100427270620936E1    -4.260286432506042E1    -9.972613332070482E1
 1.931606250000000E8    -3.968009142042047E1    -9.433528928318005E1    -9.470277574419421E-2   -7.113438603805055E1    -9.349049867318393E-2   -7.113987302640338E1    -4.233746779947489E1    -1.009309543056329E2
 1.935355000000000E8    -3.976959330997230E1    -9.521868413668599E1    -9.494961840012814E-2   -7.126837210224085E1    -9.427814982581099E-2   -7.127625312831404E1    -4.218410110508054E1    -1.016293684697645E2
 1.939103750000000E8    -3.979882746522225E1    -9.586295295356875E1    -9.433604782485869E-2   -7.140406573037518E1    -9.458554407959013E-2   -7.141089397315295E1    -4.220580120094031E1    -1.028337742719212E2
 1.942852500000000E8    -3.989739490314814E1    -9.622191790090913E1    -9.522577141510785E-2   -7.154365161205020E1    -9.442994157940629E-2   -7.155012114348844E1    -4.204432251029125E1    -1.033815228508980E2
 1.946601250000000E8    -4.000099494886111E1    -9.735190225481723E1    -9.496360878374546E-2   -7.168307965836495E1    -9.474392240490334E-2   -7.168706068123635E1    -4.172842012058435E1    -1.029907944383339E2
 1.950350000000000E8    -4.001002822854259E1    -9.796431740998435E1    -9.489564775541075E-2   -7.182028974981601E1    -9.427516063430355E-2   -7.182464592717579E1    -4.173757764608435E1    -1.026378285540765E2
 1.954098750000000E8    -4.011764346846414E1    -9.808243776737790E1    -9.551403570402173E-2   -7.195727184016677E1    -9.339838727091697E-2   -7.196222611570577E1    -4.163614783243831E1    -1.038449763894063E2
 1.957847500000000E8    -4.010888470704172E1    -9.864175456468386E1    -9.468647213119794E-2   -7.209269464704457E1    -9.441338998143808E-2   -7.209948915941662E1    -4.157147295158686E1    -1.043309917394498E2
 1.961596250000000E8    -4.022852997506553E1    -9.938200920950158E1    -9.471113273224244E-2   -7.223345677590001E1    -9.407153845197143E-2   -7.223408628543706E1    -4.163901917000632E1    -1.049803381680358E2
 1.965345000000000E8    -4.023605203157278E1    -1.004349055855643E2    -9.495786887542552E-2   -7.236791716764890E1    -9.379772449198616E-2   -7.237424524532493E1    -4.138959006803408E1    -1.046928317600610E2
 1.969093750000000E8    -4.021886305975423E1    -1.009315326620909E2    -9.471598061975417E-2   -7.250633015005943E1    -9.421044721707181E-2   -7.251083174934394E1    -4.127722623979794E1    -1.051758771705770E2
 1.972842500000000E8    -4.029156239199395E1    -1.021408491069623E2    -9.433463870851924E-2   -7.264439564224199E1    -9.466572679355030E-2   -7.265155091827364E1    -4.120711051898149E1    -1.054213543981802E2
 1.976591250000000E8    -4.036259514028526E1    -1.023392448214085E2    -9.482235104599583E-2   -7.278197580809001E1    -9.392560083318971E-2   -7.278818299395969E1    -4.124242449283679E1    -1.058448052744347E2
 1.980340000000000E8    -4.060430161053654E1    -1.022314971166048E2    -9.537768695416049E-2   -7.292135928850252E1    -9.421846197157926E-2   -7.292772359862079E1    -4.100851468640555E1    -1.056279751057092E2
 1.984088750000000E8    -4.067952074328254E1    -1.028777333138343E2    -9.451901476644584E-2   -7.305808558433606E1    -9.608235962880252E-2   -7.306473527273489E1    -4.102113418929499E1    -1.057753624578419E2
 1.987837500000000E8    -4.066980719665278E1    -1.035242293477202E2    -9.512920622206626E-2   -7.319825397618879E1    -9.543257384527846E-2   -7.320379204726510E1    -4.081047088869543E1    -1.049306387071158E2
 1.991586250000000E8    -4.066315670050773E1    -1.044957760496120E2    -9.500857817155159E-2   -7.333617884054914E1    -9.482723229744359E-2   -7.334361757390548E1    -4.059613145714547E1    -1.061683444805926E2
 1.995335000000000E8    -4.076757583674059E1    -1.053661941722339E2    -9.555326001413372E-2   -7.347179571193486E1    -9.371430633212463E-2   -7.348267862916566E1    -4.041786648653171E1    -1.062541365509331E2
 1.999083750000000E8    -4.088850496619085E1    -1.055869475160555E2    -9.461824732479940E-2   -7.361807486986100E1    -9.456900396979877E-2   -7.361677379889757E1    -4.045598013629919E1    -1.065124748572982E2
 2.002832500000000E8    -4.080607160003989E1    -1.071920433166196E2    -9.440624565434062E-2   -7.375245787180158E1    -9.440224464584210E-2   -7.375599649961208E1    -4.051528307472459E1    -1.066099839727300E2
 2.006581250000000E8    -4.086852580959328E1    -1.067067726645414E2    -9.470230204488567E-2   -7.389145756718152E1    -9.467315502465427E-2   -7.389664610374011E1    -4.030509811194066E1    -1.071012084847330E2
 2.010330000000000E8    -4.099010171873707E1    -1.072192849757903E2    -9.501971581141860E-2   -7.403003156602001E1    -9.457608010939675E-2   -7.403568255200577E1    -4.023385490052686E1    -1.072287006545705E2
 2.014078750000000E8    -4.092840621370347E1    -1.072687420439385E2    -9.378702050987123E-2   -7.417203024197705E1    -9.460456987981516E-2   -7.417534511951872E1    -4.016998922518221E1    -1.073933833297818E2
 2.017827500000000E8    -4.101337479678730E1    -1.083114210000300E2    -9.390728509952261E-2   -7.431179092600127E1    -9.465850315864358E-2   -7.431693100238168E1    -4.010476958764069E1    -1.075464021243030E2
 2.021576250000000E8    -4.113157716275137E1    -1.098087048309986E2    -9.495296143106451E-2   -7.445145325177494E1    -9.465838321774192E-2   -7.445348802296449E1    -4.012377477437953E1    -1.082072321312471E2
 2.025325000000000E8    -4.103879888806284E1    -1.095596616961304E2    -9.509542895189982E-2   -7.459023579595700E1    -9.499964418953384E-2   -7.459134209924122E1    -4.007901103115454E1    -1.090422216717764E2
 2.029073750000000E8    -4.123938488682362E1    -1.109140457871378E2    -9.546455546627231E-2   -7.472896170073845E1    -9.463832646400105E-2   -7.472956432671002E1    -4.004866044374754E1    -1.091518277965127E2
 2.032822500000000E8    -4.128402436171033E1    -1.115917734512947E2    -9.534414471945679E-2   -7.486149015349726E1    -9.405027868620262E-2   -7.486888580298239E1    -4.007992543511526E1    -1.097796100813107E2
 2.036571250000000E8    -4.120225525560859E1    -1.131514728009352E2    -9.531450743716288E-2   -7.500272514341181E1    -9.532364757734380E-2   -7.500662801167223E1    -4.018314140905392E1    -1.097807442367628E2
 2.040320000000000E8    -4.106795587174717E1    -1.140789536771926E2    -9.566704671429979E-2   -7.514277216623972E1    -9.561102150124923E-2   -7.514225456204352E1    -3.993444158978635E1    -1.094805582960721E2
 2.044068750000000E8    -4.126607990550462E1    -1.151188638327033E2    -9.563474780317016E-2   -7.527821484527455E1    -9.609452039142399E-2   -7.528311721683058E1    -3.998531352380193E1    -1.087346951162248E2
 2.047817500000000E8    -4.123824274571766E1    -1.161195290274755E2    -9.656276568349104E-2   -7.541606431085484E1    -9.622359829829381E-2   -7.541940835755311E1    -3.993526125483844E1    -1.092881880605586E2
 2.051566250000000E8    -4.130305443615470E1    -1.160678815737037E2    -9.634205979411117E-2   -7.555459950984786E1    -9.562592516297017E-2   -7.555755922532470E1    -3.980338857478395E1    -1.094442179498699E2
 2.055315000000000E8    -4.146204010299855E1    -1.168080563465804E2    -9.673789062975822E-2   -7.569463202003949E1    -9.614678793277481E-2   -7.569959304683979E1    -3.975990268081048E1    -1.092309390655225E2
 2.059063750000000E8    -4.151667793917197E1    -1.169026122544442E2    -9.645635402108257E-2   -7.583191269423371E1    -9.724777792368305E-2   -7.583560020952790E1    -3.970035395065916E1    -1.095172536661302E2
 2.062812500000000E8    -4.154471777984993E1    -1.175009164080033E2    -9.683738613929488E-2   -7.596936129956146E1    -9.698548492513082E-2   -7.597189671478692E1    -3.964352740865786E1    -1.096880012400503E2
 2.066561250000000E8    -4.155914477546447E1    -1.177422241580079E2    -9.706648951142008E-2   -7.610783599144989E1    -9.612385797710249E-2   -7.611076565320015E1    -3.970777950265201E1    -1.103928569892425E2
 2.070310000000000E8    -4.160410175618122E1    -1.173638587011327E2    -9.734171483267982E-2   -7.624771081978197E1    -9.561366589586708E-2   -7.624844080319346E1    -3.969783176552006E1    -1.102167188095082E2
 2.074058750000000E8    -4.160165370136528E1    -1.178820194387713E2    -9.711717668716342E-2   -7.638588541986880E1    -9.626991719531527E-2   -7.638663335394899E1    -3.970297842217433E1    -1.103571061929288E2
 2.077807500000000E8    -4.165171508602188E1    -1.194358758555295E2    -9.747167414394320E-2   -7.652286889230213E1    -9.751882405046049E-2   -7.652693922858680E1    -3.965767875486550E1    -1.107142857462155E2
 2.081556250000000E8    -4.167016832525427E1    -1.195559331978491E2    -9.806190860027506E-2   -7.665924138354008E1    -9.778865219598865E-2   -7.666544744198640E1    -3.961690312982661E1    -1.106919689309223E2
 2.085305000000000E8    -4.167834668813284E1    -1.205360430194025E2    -9.743850550098673E-2   -7.679434550891536E1    -9.734798198342745E-2   -7.679672183761780E1    -3.969896173195634E1    -1.106346699005673E2
 2.089053750000000E8    -4.174481740340553E1    -1.202282496477693E2    -9.724393586972002E-2   -7.693150285325503E1    -9.744248283719179E-2   -7.693219609499488E1    -3.972428017683052E1    -1.107743052261043E2
 2.092802500000000E8    -4.184870222265248E1    -1.205588460843001E2    -9.776966220390770E-2   -7.706718451548534E1    -9.686539915703687E-2   -7.706938209752816E1    -3.965017806390244E1    -1.114696248743957E2
 2.096551250000000E8    -4.178812448098859E1    -1.215647167065639E2    -9.703361452751100E-2   -7.720872130047839E1    -9.711130532282197E-2   -7.721302985995050E1    -3.957565374062435E1    -1.114511201764845E2
 2.100300000000000E8    -4.167776795703145E1    -1.228826332921503E2    -9.723936092139615E-2   -7.734939939639182E1    -9.698584863792536E-2   -7.735214168382585E1    -3.959564094401734E1    -1.107602558393485E2
 2.104048750000000E8    -4.167759356604444E1    -1.228436815451234E2    -9.792668710414205E-2   -7.748434921881052E1    -9.702805840445575E-2   -7.748948766475674E1    -3.955921869288619E1    -1.120416061717582E2
 2.107797500000000E8    -4.161737976740552E1    -1.229188468473664E2    -9.842826972343731E-2   -7.762589792817084E1    -9.717238486718362E-2   -7.762746888356146E1    -3.968090791348508E1    -1.122773726688869E2
 2.111546250000000E8    -4.172440584826737E1    -1.235583488562876E2    -9.788509249216501E-2   -7.776744528756473E1    -9.761443115712784E-2   -7.776396465134053E1    -3.977088479916253E1    -1.120861485922648E2
 2.115295000000000E8    -4.152456328081872E1    -1.233497306614134E2    -9.793210881972622E-2   -7.790310294591018E1    -9.764334082210611E-2   -7.790132603294188E1    -3.973315630373013E1    -1.127683428741867E2
 2.119043750000000E8    -4.148926131345949E1    -1.239196677049599E2    -9.855488129710585E-2   -7.803487537499979E1    -9.799588772998713E-2   -7.803932578476670E1    -3.973100394404139E1    -1.129006282301610E2
 2.122792500000000E8    -4.148374311243094E1    -1.232926649830534E2    -9.720637018275097E-2   -7.817697047924401E1    -9.821027796526835E-2   -7.817619664568241E1    -3.968447131437271E1    -1.135341978149653E2
 2.126541250000000E8    -4.159280033752053E1    -1.242671652559966E2    -9.787057806187666E-2   -7.831457985828325E1    -9.783507841697872E-2   -7.831285206242136E1    -3.985473594357433E1    -1.138019927956450E2
 2.130290000000000E8    -4.153009124089260E1    -1.248809916125286E2    -9.824912328517456E-2   -7.845350254146815E1    -9.742108269842217E-2   -7.845080767625537E1    -3.990423651758265E1    -1.135451930848005E2
 2.134038750000000E8    -4.156268099867145E1    -1.257434679363868E2    -9.850921671205834E-2   -7.859008608121258E1    -9.784923008136465E-2   -7.858482591746288E1    -3.976169137789106E1    -1.147067512912048E2
 2.137787500000000E8    -4.139558334955976E1    -1.258195819035773E2    -9.830728296930451E-2   -7.872740827868341E1    -9.798191393848653E-2   -7.872570290974754E1    -3.990923823506606E1    -1.143345257629113E2
 2.141536250000000E8    -4.135983891502691E1    -1.265097528121648E2    -9.842610639241675E-2   -7.886518834017654E1    -9.786188754523317E-2   -7.886233910179031E1    -3.999104556195032E1    -1.148727994728347E2
 2.145285000000000E8    -4.127077593685805E1    -1.263055213007166E2    -9.834025042475465E-2   -7.900098538349737E1    -9.789998029416133E-2   -7.900024430931575E1    -3.997562686471743E1    -1.161444789326233E2
 2.149033750000000E8    -4.114668001090297E1    -1.258735662404460E2    -9.876032613923802E-2   -7.914426920925219E1    -9.767277403039355E-2   -7.914267934908897E1    -3.994727327218785E1    -1.163145261522031E2
 2.152782500000000E8    -4.130442678505919E1    -1.261540585660122E2    -9.866160592142975E-2   -7.928069848289752E1    -9.795318157922722E-2   -7.928170934762740E1    -4.002151693076472E1    -1.166670669317347E2
 2.156531250000000E8    -4.122607398839654E1    -1.267222163536488E2    -9.758657058138012E-2   -7.941741982403936E1    -9.805057889665647E-2   -7.941874285629935E1    -4.024581545931839E1    -1.163723642663396E2
 2.160280000000000E8    -4.120374407294594E1    -1.265880988546925E2    -9.795896913603268E-2   -7.955650682491623E1    -9.714712622535115E-2   -7.955757886203497E1    -4.021430069560062E1    -1.175487563948137E2
 2.164028750000000E8    -4.119182323116299E1    -1.270925196260237E2    -9.867192150601173E-2   -7.969478672847650E1    -9.709779519803245E-2   -7.969417524128308E1    -4.034017901267675E1    -1.179982573268993E2
 2.167777500000000E8    -4.103786464983951E1    -1.273391240091596E2    -9.900402737228953E-2   -7.983389388626696E1    -9.790772080070995E-2   -7.983079977289047E1    -4.004637964317239E1    -1.192227933861960E2
 2.171526250000000E8    -4.093873107783887E1    -1.274195534228796E2    -9.811894342521894E-2   -7.996969329458231E1    -9.805970041036886E-2   -7.997287338990446E1    -4.025444502561757E1    -1.200339453267538E2
 2.175275000000000E8    -4.084325750342714E1    -1.270909809955075E2    -9.873395156769360E-2   -8.010878460476745E1    -9.867456077412110E-2   -8.011043046778462E1    -4.044369673803268E1    -1.206137112808590E2
 2.179023750000000E8    -4.075493050331083E1    -1.269485768653996E2    -9.921198712693394E-2   -8.024635110179315E1    -9.873213847797525E-2   -8.024405898322365E1    -4.060545401353428E1    -1.207190388699878E2
 2.182772500000000E8    -4.081321370067166E1    -1.271816089766471E2    -9.985313773949346E-2   -8.038069499467413E1    -9.708753071211072E-2   -8.037911344337515E1    -4.061968109733479E1    -1.217157751349252E2
 2.186521250000000E8    -4.065454583172691E1    -1.276778936213011E2    -9.853861983578099E-2   -8.051816373883260E1    -9.773726988640188E-2   -8.051873032114226E1    -4.072910709824005E1    -1.222785803766327E2
 2.190270000000000E8    -4.061112345882349E1    -1.275099122682692E2    -9.833469213324951E-2   -8.065559590969669E1    -9.793290176700839E-2   -8.065841250066882E1    -4.067760185261641E1    -1.237389146438533E2
 2.194018750000000E8    -4.053387080202889E1    -1.279349882502103E2    -9.755657782313254E-2   -8.079440624272083E1    -9.824992101416155E-2   -8.079260699702104E1    -4.073410138048505E1    -1.249539828690012E2
 2.197767500000000E8    -4.053810129319231E1    -1.274658918642963E2    -9.769891105991196E-2   -8.093333914795112E1    -9.824463010046221E-2   -8.092988965154181E1    -4.077037547351166E1    -1.256006212001136E2
 2.201516250000000E8    -4.044253147598742E1    -1.279216866533958E2    -9.912286943964840E-2   -8.106905048369946E1    -9.795910642451403E-2   -8.107191385308823E1    -4.081831397889488E1    -1.266597670862949E2
 2.205265000000000E8    -4.041306149039055E1    -1.278068118416217E2    -9.931790805549148E-2   -8.121002066950830E1    -9.805313280587770E-2   -8.121142801404586E1    -4.080792726955947E1    -1.276699195742822E2
 2.209013750000000E8    -4.011111329926998E1    -1.278128017129031E2    -9.894260437034214E-2   -8.134977397959452E1    -9.852561157719858E-2   -8.135031066176333E1    -4.086153410229264E1    -1.285884681130280E2
 2.212762500000000E8    -4.003164699189715E1    -1.281314838045013E2    -9.901055770222335E-2   -8.148828254122417E1    -9.844026802408828E-2   -8.148575382663562E1    -4.093808197831284E1    -1.295856371708223E2
 2.216511250000000E8    -4.002550789210616E1    -1.278532165901571E2    -9.930291723591617E-2   -8.162552137972108E1    -9.918601355184813E-2   -8.162376694879281E1    -4.108473642537721E1    -1.302478494824906E2
 2.220260000000000E8    -4.011935581608949E1    -1.277266870391484E2    -1.000791158137756E-1   -8.176037678020634E1    -9.853073823811215E-2   -8.175787643063290E1    -4.116587092788325E1    -1.316537611275149E2
 2.224008750000000E8    -3.990648135210390E1    -1.278954151478942E2    -9.968259506676112E-2   -8.190064502415021E1    -9.905686796503521E-2   -8.189951581756115E1    -4.128079429837207E1    -1.324774078952195E2
 2.227757500000000E8    -3.985306285638603E1    -1.273855830811287E2    -9.882439684473973E-2   -8.204017176287897E1    -9.889195859717982E-2   -8.203970070601297E1    -4.117451298946877E1    -1.336363470679886E2
 2.231506250000000E8    -3.974841511012588E1    -1.273901536515117E2    -9.927375032557957E-2   -8.217853717862826E1    -9.820533357894454E-2   -8.217700295683761E1    -4.128479211157517E1    -1.350803450192058E2
 2.235255000000000E8    -3.960639952622061E1    -1.275746044003706E2    -9.975156537530708E-2   -8.231371096244742E1    -9.795007333205052E-2   -8.231524843894437E1    -4.129627994627615E1    -1.353488635093047E2
 2.239003750000000E8    -3.954534539579775E1    -1.275020693840879E2    -9.938967166416846E-2   -8.245269772711495E1    -9.828936226924129E-2   -8.245236808650198E1    -4.149970141059300E1    -1.363501365585067E2
 2.242752500000000E8    -3.938079719705569E1    -1.273187003092903E2    -9.951129348163423E-2   -8.259463115924534E1    -9.864966868824393E-2   -8.258881333581093E1    -4.133199613355889E1    -1.384778700693394E2
 2.246501250000000E8    -3.924647902724810E1    -1.273537558226250E2    -9.963818068421862E-2   -8.273012129266787E1    -9.875008657422482E-2   -8.272641211698824E1    -4.133231221283005E1    -1.389173104319197E2
 2.250250000000000E8    -3.913781811479467E1    -1.266621130903292E2    -9.914190575354073E-2   -8.286721847598396E1    -9.962240441927364E-2   -8.286489718245183E1    -4.146564339448601E1    -1.392403149793236E2
 2.253998750000000E8    -3.923156470402424E1    -1.271168890003076E2    -1.002900262642918E-1   -8.300220984204995E1    -9.861742396731840E-2   -8.300100535365894E1    -4.140780067456451E1    -1.415614046736458E2
 2.257747500000000E8    -3.907248040132448E1    -1.275185870125938E2    -9.913168617152794E-2   -8.314086967824845E1    -9.966166794927964E-2   -8.313783997169729E1    -4.139529591868882E1    -1.435888802948785E2
 2.261496250000000E8    -3.904540120589940E1    -1.280243962693255E2    -9.975621940013989E-2   -8.327883073052541E1    -9.954886053622494E-2   -8.327583172866966E1    -4.140160637354973E1    -1.451544373785614E2
 2.265245000000000E8    -3.892689237238108E1    -1.281117700301017E2    -9.890372117919149E-2   -8.341769590490868E1    -9.907908922096705E-2   -8.341573054467970E1    -4.151818484976097E1    -1.460197232267880E2
 2.268993750000000E8    -3.880109091135296E1    -1.286330733529310E2    -9.964668920783294E-2   -8.355472681131501E1    -9.866882328494095E-2   -8.355462083199637E1    -4.163133647907546E1    -1.464929564687316E2
 2.272742500000000E8    -3.873959785340403E1    -1.287712553429334E2    -1.003280341249015E-1   -8.369482377690598E1    -9.899401104097177E-2   -8.369035214845745E1    -4.140978160794784E1    -1.479038498038268E2
 2.276491250000000E8    -3.859086603368950E1    -1.291507357177448E2    -1.004801790085541E-1   -8.383223887268362E1    -9.927528479760797E-2   -8.382764519183863E1    -4.134577112902431E1    -1.494437352991736E2
 2.280240000000000E8    -3.846390195418809E1    -1.289157246058411E2    -1.002593078115675E-1   -8.396925242967522E1    -9.906626686624054E-2   -8.396913553398622E1    -4.129429638829151E1    -1.505745920728079E2
 2.283988750000000E8    -3.835803183205137E1    -1.294300497167979E2    -1.000384537470856E-1   -8.410740021866478E1    -9.956416434910466E-2   -8.410497167806666E1    -4.122038392899188E1    -1.516164819073225E2
 2.287737500000000E8    -3.828655325072974E1    -1.290896047417981E2    -1.000779604351247E-1   -8.424559966111144E1    -9.993887199981059E-2   -8.424064651301342E1    -4.109032775967775E1    -1.527687297881385E2
 2.291486250000000E8    -3.818439279482289E1    -1.290551315235742E2    -1.003419944305890E-1   -8.438374925882680E1    -9.971409563868057E-2   -8.438156129710508E1    -4.109228162263165E1    -1.540365293655495E2
 2.295235000000000E8    -3.814951864720010E1    -1.293055499885755E2    -9.949031070960471E-2   -8.452072063887269E1    -1.003372892610918E-1   -8.451514262791461E1    -4.104956153734164E1    -1.553604604063048E2
 2.298983750000000E8    -3.808824055765481E1    -1.292287492891468E2    -1.010026906877020E-1   -8.465517548574969E1    -9.947403398994950E-2   -8.465230567797863E1    -4.113188083007105E1    -1.569990217236896E2
 2.302732500000000E8    -3.799701611035075E1    -1.294619484081801E2    -1.009460033388590E-1   -8.479345957739724E1    -9.989382533689925E-2   -8.479252615125773E1    -4.106097437555243E1    -1.580044979827787E2
 2.306481250000000E8    -3.792670886066749E1    -1.299977875062724E2    -1.004680809039805E-1   -8.493493539318459E1    -1.001528045878954E-1   -8.492961724412821E1    -4.081930324432746E1    -1.586237232388131E2
 2.310230000000000E8    -3.789236246362515E1    -1.302986309462637E2    -1.006844743144428E-1   -8.507037798312028E1    -1.006066670310301E-1   -8.506445114272229E1    -4.084359596446227E1    -1.602956678781979E2
 2.313978750000000E8    -3.770510729281175E1    -1.302681386270797E2    -1.009341081935548E-1   -8.520848656791853E1    -1.007840780567259E-1   -8.520239992008520E1    -4.066182437145863E1    -1.614659057268016E2
 2.317727500000000E8    -3.764336691879220E1    -1.302859658269223E2    -1.010872879471484E-1   -8.534666919735790E1    -1.009267897105007E-1   -8.534044703597408E1    -4.055100783043333E1    -1.623888710129189E2
 2.321476250000000E8    -3.760975656472682E1    -1.300957558905563E2    -1.009607749406757E-1   -8.548409252450762E1    -1.004472338089331E-1   -8.547631598309364E1    -4.042724473931940E1    -1.632311466316708E2
 2.325225000000000E8    -3.756785424910129E1    -1.304708330343310E2    -1.018130734643342E-1   -8.561998297685815E1    -9.988166875163816E-2   -8.561594315764877E1    -4.047797628574087E1    -1.635049297443747E2
 2.328973750000000E8    -3.747857867059633E1    -1.308992442177739E2    -1.021513260352455E-1   -8.575692587945971E1    -1.010944089460702E-1   -8.575205478510669E1    -4.042020025953134E1    -1.646902895147913E2
 2.332722500000000E8    -3.746690264431357E1    -1.308470960791745E2    -1.017492318154101E-1   -8.589148652536731E1    -1.014350125517908E-1   -8.589101579305812E1    -4.032138444448545E1    -1.655806180142622E2
 2.336471250000000E8    -3.739166707551293E1    -1.312210788294319E2    -1.018452492087257E-1   -8.603295986161724E1    -1.015256579992334E-1   -8.603005235030021E1    -4.008157561494548E1    -1.654031878365847E2
 2.340220000000000E8    -3.738043541561267E1    -1.319346203952551E2    -1.008312317143475E-1   -8.616960822097951E1    -1.013687065972364E-1   -8.616798497870266E1    -4.002840539825175E1    -1.657091696686819E2
 2.343968750000000E8    -3.726170964642079E1    -1.319438057225241E2    -1.015999035185299E-1   -8.631317592579538E1    -1.002124908051333E-1   -8.630813527908245E1    -3.994474235160752E1    -1.664733006733486E2
 2.347717500000000E8    -3.733284870606816E1    -1.320902772766945E2    -1.023279090365532E-1   -8.645074871887478E1    -1.010688636736814E-1   -8.644590560612683E1    -4.002094304884832E1    -1.675735496666494E2
 2.351466250000000E8    -3.721511805937364E1    -1.325277537884826E2    -1.020730620466616E-1   -8.658896004885165E1    -1.022520110120518E-1   -8.658268537702089E1    -3.990069312769560E1    -1.686264987044005E2
 2.355215000000000E8    -3.727620658949577E1    -1.328508534693759E2    -1.024859756817296E-1   -8.672637917412186E1    -1.018639282058277E-1   -8.672098596478770E1    -3.972187985348870E1    -1.695241087637363E2
 2.358963750000000E8    -3.713986536164552E1    -1.330832145044711E2    -1.014992267924694E-1   -8.686083802693366E1    -1.007771767635717E-1   -8.686089428851835E1    -3.962730867301569E1    -1.702499857198596E2
 2.362712500000000E8    -3.714388613435447E1    -1.338164483155821E2    -1.016561909805844E-1   -8.700186101062467E1    -1.012450640878803E-1   -8.699513403831897E1    -3.948075287772586E1    -1.704493175062347E2
 2.366461250000000E8    -3.710138885734543E1    -1.335638286712264E2    -1.016818813090526E-1   -8.713940093572381E1    -1.019505693938129E-1   -8.713173780300352E1    -3.940676977278027E1    -1.709225616305489E2
 2.370210000000000E8    -3.703183216987347E1    -1.337697020362719E2    -1.017314704382360E-1   -8.727730762791772E1    -1.021450394418874E-1   -8.727167350078240E1    -3.933056107764298E1    -1.721561405101864E2
 2.373958750000000E8    -3.701584725617411E1    -1.338536724179156E2    -1.027076306772154E-1   -8.741531824189700E1    -1.014709304908030E-1   -8.741033238712342E1    -3.931784959310874E1    -1.719851756234760E2
 2.377707500000000E8    -3.692114675157570E1    -1.340090551718506E2    -1.023605666263305E-1   -8.755380899151400E1    -1.014286730406420E-1   -8.754740283355369E1    -3.919445759614030E1    -1.713637554819318E2
 2.381456250000000E8    -3.688983513105273E1    -1.344220993307332E2    -1.020914984932691E-1   -8.768785816115725E1    -1.019442541035448E-1   -8.768611829714759E1    -3.902493100651276E1    -1.713142447075318E2
 2.385205000000000E8    -3.691418915437470E1    -1.346724980271551E2    -1.022545717655383E-1   -8.782437204604645E1    -1.024654621379188E-1   -8.782035205105660E1    -3.900677291565611E1    -1.720618738078404E2
 2.388953750000000E8    -3.685287367319152E1    -1.347736049206358E2    -1.024634045694211E-1   -8.796287929058280E1    -1.016660489487951E-1   -8.795854995813880E1    -3.891227665334548E1    -1.724427162759176E2
 2.392702500000000E8    -3.679888411847356E1    -1.353763120155661E2    -1.028955009029429E-1   -8.809891585275999E1    -1.021343764273947E-1   -8.809766204165687E1    -3.877809879813813E1    -1.726923835850939E2
 2.396451250000000E8    -3.675436393050276E1    -1.352989558358331E2    -1.038068740010809E-1   -8.824018618489352E1    -1.018127601101264E-1   -8.823429595924399E1    -3.868078949919947E1    -1.732121353728658E2
 2.400200000000000E8    -3.680558124250154E1    -1.355858062955043E2    -1.024569954063835E-1   -8.837703075761719E1    -1.037032120891018E-1   -8.837092430523968E1    -3.865498046305984E1    -1.730353777936600E2
 2.403948750000000E8    -3.685367383119109E1    -1.359174232623058E2    -1.025338238625736E-1   -8.851382222063697E1    -1.031039623825488E-1   -8.851325331782024E1    -3.874159208128835E1    -1.739361825050075E2
 2.407697500000000E8    -3.682608651052699E1    -1.367135452719212E2    -1.025907415682555E-1   -8.865151459318515E1    -1.023347108505265E-1   -8.864807773401691E1    -3.857342436872347E1    -1.733066333887971E2
 2.411446250000000E8    -3.678005543564900E1    -1.368555652497049E2    -1.022363309995187E-1   -8.878732884946668E1    -1.027213311186391E-1   -8.878365709454471E1    -3.852052266353638E1    -1.737045884465927E2
 2.415195000000000E8    -3.683813788801896E1    -1.368753628331988E2    -1.020892705925454E-1   -8.892768492998825E1    -1.023679622132478E-1   -8.892116902831884E1    -3.846018548029528E1    -1.730991890759845E2
 2.418943750000000E8    -3.681870046100470E1    -1.376397036154511E2    -1.027032644257235E-1   -8.906548167123074E1    -1.016750249808444E-1   -8.906447474894438E1    -3.838416780736954E1    -1.737296059691104E2
 2.422692500000000E8    -3.680021531328522E1    -1.376738918686023E2    -1.025511137032074E-1   -8.920605774655353E1    -1.027117921183047E-1   -8.919505489235645E1    -3.833185110758657E1    -1.743372582314503E2
 2.426441250000000E8    -3.684723935330501E1    -1.387236363151134E2    -1.032814602326061E-1   -8.933890900649440E1    -1.023453717664787E-1   -8.933647517127730E1    -3.827850912337336E1    -1.738703820475792E2
 2.430190000000000E8    -3.685372120758521E1    -1.390732345926019E2    -1.020954931075437E-1   -8.947702265353766E1    -1.018050620216083E-1   -8.947106519653364E1    -3.817044542603092E1    -1.736095607495181E2
 2.433938750000000E8    -3.688240069009664E1    -1.390915092896350E2    -1.023208771089130E-1   -8.961722303694631E1    -1.023960725423285E-1   -8.961251397793039E1    -3.813285928537202E1    -1.736451177339672E2
 2.437687500000000E8    -3.682106022340490E1    -1.391003354295950E2    -1.021911447060501E-1   -8.975459126879385E1    -1.026480294206866E-1   -8.975250688046859E1    -3.817595155140308E1    -1.735196345830004E2
 2.441436250000000E8    -3.688230035062145E1    -1.389178939948005E2    -1.034008633173928E-1   -8.989344854787903E1    -1.026268638045811E-1   -8.988981548421518E1    -3.812857992848058E1    -1.733120461001664E2
 2.445185000000000E8    -3.684737797117587E1    -1.394504213006778E2    -1.032471844458785E-1   -9.003264183563650E1    -1.034191022357263E-1   -9.003039267923047E1    -3.815648589778207E1    -1.732806809797341E2
 2.448933750000000E8    -3.691628338845697E1    -1.397550291245101E2    -1.025360830173154E-1   -9.017031453191315E1    -1.025645092437249E-1   -9.016454011916133E1    -3.806159652098685E1    -1.730522756460950E2
 2.452682500000000E8    -3.694437895417542E1    -1.399985620940512E2    -1.027284273029195E-1   -9.030286832719219E1    -1.028846434042840E-1   -9.030154552955291E1    -3.803573506902156E1    -1.727631587926345E2
 2.456431250000000E8    -3.693936260342734E1    -1.397967940733605E2    -1.032924155179325E-1   -9.043982978607410E1    -1.033210280410659E-1   -9.043638617464232E1    -3.809221562609743E1    -1.720111410108223E2
 2.460180000000000E8    -3.699415422216542E1    -1.403615022478899E2    -1.049974289790715E-1   -9.057503793917354E1    -1.041198061183694E-1   -9.057243270082668E1    -3.821549835119087E1    -1.719719667962951E2
 2.463928750000000E8    -3.700904147949447E1    -1.407988950977546E2    -1.040331031411213E-1   -9.071285234799295E1    -1.041745772524393E-1   -9.071123971937868E1    -3.816319330286052E1    -1.720236779662588E2
 2.467677500000000E8    -3.706766934909604E1    -1.410374547619387E2    -1.036464918663909E-1   -9.085064976044451E1    -1.038998911752814E-1   -9.084862036036991E1    -3.807922916093617E1    -1.721639248363537E2
 2.471426250000000E8    -3.708266253339452E1    -1.414249353596973E2    -1.031604020314336E-1   -9.099060056175480E1    -1.033054178045867E-1   -9.098624174503270E1    -3.799190131448705E1    -1.712638460235523E2
 2.475175000000000E8    -3.711914203341015E1    -1.418425968607218E2    -1.034161883037214E-1   -9.112542012071600E1    -1.038125420985068E-1   -9.111933989309546E1    -3.804473937248862E1    -1.717050982793309E2
 2.478923750000000E8    -3.718715235289064E1    -1.426176635250075E2    -1.032128234975589E-1   -9.126243651180461E1    -1.037347777035131E-1   -9.125728982490531E1    -3.810725433865992E1    -1.717572101057405E2
 2.482672500000000E8    -3.725310173888691E1    -1.428887053892649E2    -1.035416873524702E-1   -9.140004642925338E1    -1.032893075958463E-1   -9.139600993692315E1    -3.807282126656936E1    -1.711158573498525E2
 2.486421250000000E8    -3.725723965827424E1    -1.426879085295630E2    -1.038338888204700E-1   -9.153645363650003E1    -1.031742875022038E-1   -9.153560235727137E1    -3.800410519567667E1    -1.708243560489361E2
 2.490170000000000E8    -3.719553777028051E1    -1.431072807020780E2    -1.041258465939255E-1   -9.167581600599080E1    -1.035526264555276E-1   -9.167039309175010E1    -3.799291451854247E1    -1.701268917857915E2
 2.493918750000000E8    -3.737501477182352E1    -1.431907864504564E2    -1.038938612519193E-1   -9.181543371003069E1    -1.037562593395496E-1   -9.180757356204353E1    -3.807697935155862E1    -1.703391389719929E2
 2.497667500000000E8    -3.744326043418420E1    -1.433857604584622E2    -1.042700726419445E-1   -9.195236533575448E1    -1.036119162244094E-1   -9.195017522234471E1    -3.822335586078951E1    -1.702900168139617E2
 2.501416250000000E8    -3.741955371740345E1    -1.439232307556874E2    -1.042891593628530E-1   -9.209101664041692E1    -1.028854287587355E-1   -9.208859639475148E1    -3.811611532401938E1    -1.695124354611979E2
 2.505165000000000E8    -3.761568222951517E1    -1.443760343093044E2    -1.042027510756041E-1   -9.222997940311835E1    -1.027550829480060E-1   -9.222385133485500E1    -3.805064123821879E1    -1.693861042154804E2
 2.508913750000000E8    -3.754651988805632E1    -1.442942997549336E2    -1.032803843633866E-1   -9.236584125773700E1    -1.031088415352744E-1   -9.235937391276008E1    -3.816708032662544E1    -1.693811788575761E2
 2.512662500000000E8    -3.762534994000308E1    -1.442207788513894E2    -1.031779214273189E-1   -9.250523127627068E1    -1.031324233742282E-1   -9.250124056902790E1    -3.818634961345376E1    -1.688334829144877E2
 2.516411250000000E8    -3.762137705418796E1    -1.452921533358952E2    -1.030517251972105E-1   -9.263584424658971E1    -1.034935024650063E-1   -9.263655124493295E1    -3.813283419821853E1    -1.684082584536937E2
 2.520160000000000E8    -3.768235123512505E1    -1.450281963901857E2    -1.041495872003081E-1   -9.277847041598142E1    -1.037165637426295E-1   -9.277413475438301E1    -3.819751629654421E1    -1.680380756046758E2
 2.523908750000000E8    -3.771837770701269E1    -1.451516919627177E2    -1.040089518294840E-1   -9.291683402034469E1    -1.037649953850474E-1   -9.291004198931688E1    -3.817597575767640E1    -1.683352806484329E2
 2.527657500000000E8    -3.772134642444208E1    -1.452919458504127E2    -1.036595392793139E-1   -9.305493857882323E1    -1.034818904291571E-1   -9.305070280052996E1    -3.817163768551418E1    -1.677339581098982E2
 2.531406250000000E8    -3.776390450341597E1    -1.452475458719812E2    -1.039887529154166E-1   -9.319202607019459E1    -1.036371605282284E-1   -9.318990966002627E1    -3.815216146484357E1    -1.674011746752563E2
 2.535155000000000E8    -3.788182183193211E1    -1.460123046859756E2    -1.045211737314183E-1   -9.332836692559998E1    -1.043145382272153E-1   -9.332716775937719E1    -3.816516379747190E1    -1.671711198998565E2
 2.538903750000000E8    -3.793801159405066E1    -1.464259611220438E2    -1.041462074047098E-1   -9.346669188521049E1    -1.044773203989589E-1   -9.346162979392797E1    -3.832457983386065E1    -1.671299931398896E2
 2.542652500000000E8    -3.804954560991093E1    -1.464109380737439E2    -1.046166948335437E-1   -9.360404012099482E1    -1.042690484919646E-1   -9.360294973881278E1    -3.830804160551315E1    -1.666018317989518E2
 2.546401250000000E8    -3.816075102504451E1    -1.459186412021992E2    -1.042563048888678E-1   -9.374143097178828E1    -1.041958783893994E-1   -9.373985793524588E1    -3.833217270584341E1    -1.668294032451437E2
 2.550150000000000E8    -3.823138617902784E1    -1.468547128818410E2    -1.042051940533962E-1   -9.388091127035095E1    -1.043459927740458E-1   -9.387792302156541E1    -3.849235967912841E1    -1.662859067550310E2
 2.553898750000000E8    -3.816216343642623E1    -1.470930846450877E2    -1.040678262593850E-1   -9.401526221337008E1    -1.046770721300801E-1   -9.401267103870930E1    -3.850781114296539E1    -1.659712750624554E2
 2.557647500000000E8    -3.821620693444564E1    -1.462563781588592E2    -1.046277492938834E-1   -9.415306954181520E1    -1.044814015317798E-1   -9.414895543796979E1    -3.856108248414295E1    -1.655815394159068E2
 2.561396250000000E8    -3.832332730714745E1    -1.466542806136416E2    -1.045208194413440E-1   -9.429070448076135E1    -1.030513941919702E-1   -9.428718652256073E1    -3.856398844080077E1    -1.651350778519451E2
 2.565145000000000E8    -3.837427984069708E1    -1.470357948877165E2    -1.035718578070781E-1   -9.442745036785820E1    -1.045602640490250E-1   -9.442326519276057E1    -3.866373024186467E1    -1.652254006254568E2
 2.568893750000000E8    -3.841658493626215E1    -1.470478939729845E2    -1.048150123415130E-1   -9.456277834498493E1    -1.044578984729613E-1   -9.456648275031498E1    -3.880116953416086E1    -1.655191242593588E2
 2.572642500000000E8    -3.854629190255135E1    -1.475591566832669E2    -1.048181377089835E-1   -9.470074282629533E1    -1.044164788824483E-1   -9.470104747137086E1    -3.880333516901972E1    -1.651637541558133E2
 2.576391250000000E8    -3.871353186329679E1    -1.480209079401570E2    -1.043560625596975E-1   -9.483962547251674E1    -1.039085590408143E-1   -9.483745045690830E1    -3.891414883612993E1    -1.653681139682118E2
 2.580140000000000E8    -3.866167351423335E1    -1.482046022444651E2    -1.043105593870942E-1   -9.497757733980755E1    -1.039283938273543E-1   -9.497312252431222E1    -3.891409141996629E1    -1.655577558845913E2
 2.583888750000000E8    -3.869248218009487E1    -1.491436206436668E2    -1.048114925389768E-1   -9.511426054144934E1    -1.047511009708196E-1   -9.511163235501279E1    -3.896069239002902E1    -1.652492085302012E2
 2.587637500000000E8    -3.876282656861764E1    -1.484934667554448E2    -1.045766481353844E-1   -9.525365040359975E1    -1.049516005115453E-1   -9.524863450149904E1    -3.894482348353033E1    -1.646483926764214E2
 2.591386250000000E8    -3.878870973419345E1    -1.480414414077886E2    -1.046836751157377E-1   -9.539201843777469E1    -1.048916428459746E-1   -9.538871769668857E1    -3.895109789634610E1    -1.644149826030041E2
 2.595135000000000E8    -3.877892472344291E1    -1.490379471173915E2    -1.050827678878620E-1   -9.552979550503048E1    -1.037046499308801E-1   -9.552465205006440E1    -3.908356266711548E1    -1.641668508193540E2
 2.598883750000000E8    -3.881935562975619E1    -1.483842450902580E2    -1.043021639353214E-1   -9.567042208556094E1    -1.039657261371776E-1   -9.566597883376105E1    -3.908591344705371E1    -1.641393040455607E2
 2.602632500000000E8    -3.893623049480413E1    -1.485994031034603E2    -1.050376410417014E-1   -9.580897424155459E1    -1.047612382935863E-1   -9.580391052333594E1    -3.920238772010769E1    -1.639248770577815E2
 2.606381250000000E8    -3.901670073595947E1    -1.485886695386532E2    -1.049052250752681E-1   -9.594369707208341E1    -1.048850814100446E-1   -9.594485092551218E1    -3.945143349906336E1    -1.637045094724925E2
 2.610130000000000E8    -3.906332395180731E1    -1.490434823704593E2    -1.053026392288655E-1   -9.608011239427934E1    -1.054464853527621E-1   -9.608001719115708E1    -3.942218829963075E1    -1.638686929469809E2
 2.613878750000000E8    -3.904969297665710E1    -1.482705435001621E2    -1.043958500378688E-1   -9.622282240280627E1    -1.061886744605913E-1   -9.621152027176703E1    -3.945152506994614E1    -1.631989898991193E2
 2.617627500000000E8    -3.919600180026508E1    -1.486034541010341E2    -1.051210116204861E-1   -9.635855518092251E1    -1.058534903234657E-1   -9.635396967771015E1    -3.954183961572792E1    -1.628999477884313E2
 2.621376250000000E8    -3.923672469727292E1    -1.484284692567189E2    -1.049520227718844E-1   -9.649391360848803E1    -1.052641460053920E-1   -9.649282738795750E1    -3.975844468318673E1    -1.630718221106059E2
 2.625125000000000E8    -3.935006620159103E1    -1.485736253697017E2    -1.055408382890852E-1   -9.663075665425767E1    -1.050330429622065E-1   -9.663122307389790E1    -3.969942084343770E1    -1.634975798190016E2
 2.628873750000000E8    -3.937810994954076E1    -1.489437129362116E2    -1.053466112955087E-1   -9.676626254565964E1    -1.049990222740314E-1   -9.676733919226135E1    -3.986277464314217E1    -1.645422922707771E2
 2.632622500000000E8    -3.927614293868921E1    -1.491052394373352E2    -1.057729111440291E-1   -9.690545381670046E1    -1.060870748412462E-1   -9.690513708976951E1    -3.986116868858838E1    -1.640793685690490E2
 2.636371250000000E8    -3.926552940565249E1    -1.492229970650005E2    -1.049319226833989E-1   -9.704189831821293E1    -1.057872404023233E-1   -9.704222752168471E1    -4.001222167627677E1    -1.644136638499301E2
 2.640120000000000E8    -3.930158391931878E1    -1.485678555915832E2    -1.053897418357195E-1   -9.718227774226480E1    -1.053453561983823E-1   -9.717836152136275E1    -4.002327046375548E1    -1.645382179220393E2
 2.643868750000000E8    -3.929317878308710E1    -1.482407052611020E2    -1.061654320916345E-1   -9.731903196223384E1    -1.051354972400182E-1   -9.731611259297800E1    -4.009839017274096E1    -1.645504116181714E2
 2.647617500000000E8    -3.929034986472359E1    -1.487200791629504E2    -1.056474941092052E-1   -9.745780025450703E1    -1.047105005629872E-1   -9.745048118679767E1    -4.019996276714168E1    -1.644815913956199E2
 2.651366250000000E8    -3.934016684749145E1    -1.486503659965051E2    -1.051167869368932E-1   -9.759332184516089E1    -1.056153284777638E-1   -9.759039817465016E1    -4.030106057278740E1    -1.648310041464333E2
 2.655115000000000E8    -3.935585058533708E1    -1.483119665299179E2    -1.055320014805090E-1   -9.772864015748193E1    -1.059548282616516E-1   -9.772619464377496E1    -4.040065842399102E1    -1.646858146036312E2
 2.658863750000000E8    -3.935485597246873E1    -1.481116774921670E2    -1.051556949281068E-1   -9.786525264488007E1    -1.058236155212024E-1   -9.786124705575655E1    -4.058220123475554E1    -1.648574906313994E2
 2.662612500000000E8    -3.946799204875725E1    -1.476865789963162E2    -1.048564719028342E-1   -9.800741598514064E1    -1.065220341355860E-1   -9.799968769158076E1    -4.058925856288092E1    -1.657715664538700E2
 2.666361250000000E8    -3.943584054012034E1    -1.482084448266758E2    -1.063870605481079E-1   -9.814163243586508E1    -1.057486915021972E-1   -9.814132829404626E1    -4.065267482320458E1    -1.659567753930015E2
 2.670110000000000E8    -3.941648091134098E1    -1.480592435365196E2    -1.058005410105472E-1   -9.828397729809264E1    -1.049229937486810E-1   -9.828161825974662E1    -4.090376520240082E1    -1.666253242401381E2
 2.673858750000000E8    -3.948128523759755E1    -1.479364741506959E2    -1.052160983563744E-1   -9.842032747946899E1    -1.057836865966192E-1   -9.841585933877003E1    -4.100487342240911E1    -1.665521761432664E2
 2.677607500000000E8    -3.947705667892991E1    -1.485696601500028E2    -1.057316455535243E-1   -9.855694188998186E1    -1.059390178247466E-1   -9.855589386384540E1    -4.097158352136604E1    -1.669801917000033E2
 2.681356250000000E8    -3.941140789615001E1    -1.483551852761725E2    -1.062231073997917E-1   -9.869224200686313E1    -1.062045549567226E-1   -9.869275958083475E1    -4.094699128095523E1    -1.668505090565039E2
 2.685105000000000E8    -3.932396800153169E1    -1.480981531139134E2    -1.048314697627275E-1   -9.883128785765346E1    -1.072354214300577E-1   -9.882752214900620E1    -4.105585833556970E1    -1.687132332128349E2
 2.688853750000000E8    -3.927116479405097E1    -1.477703121500212E2    -1.058283208055490E-1   -9.896921716626430E1    -1.071301955054011E-1   -9.896268143847725E1    -4.100712037647047E1    -1.680923145536551E2
 2.692602500000000E8    -3.926163792018973E1    -1.472746761449804E2    -1.068503883213907E-1   -9.910330186585124E1    -1.070862602388632E-1   -9.910384559572006E1    -4.122775565234063E1    -1.692964874630012E2
 2.696351250000000E8    -3.929650153389277E1    -1.473189433119298E2    -1.060430403941943E-1   -9.924180076629055E1    -1.067860939380924E-1   -9.923904145525782E1    -4.144468335307019E1    -1.707635121260319E2
 2.700100000000000E8    -3.929861237256000E1    -1.476581805044832E2    -1.066154110533629E-1   -9.938062550261085E1    -1.067827710591475E-1   -9.937766330066873E1    -4.142347904353879E1    -1.703586288853980E2
 2.703848750000000E8    -3.924963234507521E1    -1.469547541137113E2    -1.067672023679003E-1   -9.951877079051098E1    -1.065373634987799E-1   -9.951495414928134E1    -4.150449957642009E1    -1.712899229723248E2
 2.707597500000000E8    -3.927366277048304E1    -1.468589544669576E2    -1.058904801732239E-1   -9.965691508483113E1    -1.067114080259044E-1   -9.965061266940845E1    -4.154548312561148E1    -1.715919918675984E2
 2.711346250000000E8    -3.920781305427510E1    -1.475003120772664E2    -1.062001642143893E-1   -9.979056074518095E1    -1.073685532374023E-1   -9.978738722376109E1    -4.147157419638047E1    -1.727727286442487E2
 2.715095000000000E8    -3.911959342381614E1    -1.473100592811766E2    -1.071380266097379E-1   -9.992898898633791E1    -1.063101554966319E-1   -9.992805422714979E1    -4.167348333268968E1    -1.734264595193733E2
 2.718843750000000E8    -3.889909329697791E1    -1.468436937189604E2    -1.075256128464174E-1   -1.000664914597925E2    -1.071975602238506E-1   -1.000640334806692E2    -4.155280408111874E1    -1.746505773351414E2
 2.722592500000000E8    -3.898150714603649E1    -1.470416070769161E2    -1.066027784157448E-1   -1.002073617477490E2    -1.078401527541142E-1   -1.002002052217080E2    -4.153896983803902E1    -1.745613728272173E2
 2.726341250000000E8    -3.898789315977946E1    -1.467145192591084E2    -1.065538590401904E-1   -1.003423851048276E2    -1.068131521603376E-1   -1.003380771768531E2    -4.162758886282041E1    -1.767955235591487E2
 2.730090000000000E8    -3.891742536240722E1    -1.474324705211064E2    -1.065664773415622E-1   -1.004787559309369E2    -1.075203064242936E-1   -1.004773372902709E2    -4.176644290168640E1    -1.783198675488601E2
 2.733838750000000E8    -3.886933332500623E1    -1.469525616377257E2    -1.065203370160423E-1   -1.006201594725484E2    -1.071756757301104E-1   -1.006149652658666E2    -4.178689392447591E1    -1.783601301666498E2
 2.737587500000000E8    -3.882745147496537E1    -1.468494325568784E2    -1.068379544163163E-1   -1.007559739080598E2    -1.073624123750860E-1   -1.007533983228193E2    -4.160591090725359E1    -1.788219075758010E2
 2.741336250000000E8    -3.867957440375070E1    -1.474532611479304E2    -1.064801317023048E-1   -1.008951278708957E2    -1.069218333346418E-1   -1.008880121677463E2    -4.165260594248673E1    -1.798587401502079E2
 2.745085000000000E8    -3.871346949111060E1    -1.480264572935546E2    -1.067526057738615E-1   -1.010277151382583E2    -1.069814730570279E-1   -1.010235560196828E2    -4.160946454804918E1     1.785683794083191E2
 2.748833750000000E8    -3.870592026298627E1    -1.482592887318317E2    -1.068750077073322E-1   -1.011667567483800E2    -1.077120930966104E-1   -1.011628748495104E2    -4.149199672127217E1     1.788540134381146E2
 2.752582500000000E8    -3.855214515071638E1    -1.478924051587137E2    -1.068175297485083E-1   -1.013036379559664E2    -1.073263104925261E-1   -1.012997241186750E2    -4.150225481384035E1     1.770565495062403E2
 2.756331250000000E8    -3.856471253948666E1    -1.477037620721731E2    -1.069556496754201E-1   -1.014398480791844E2    -1.073216704016011E-1   -1.014355178530837E2    -4.162239077729141E1     1.760116863667128E2
 2.760080000000000E8    -3.855080919117047E1    -1.475206162742593E2    -1.070871622007050E-1   -1.015738718390708E2    -1.073313173432506E-1   -1.015694589237637E2    -4.173406390523524E1     1.759023771874819E2
 2.763828750000000E8    -3.846134145729449E1    -1.476968566219122E2    -1.072410005957866E-1   -1.017103453732185E2    -1.072758870628438E-1   -1.017129784481306E2    -4.162348720564597E1     1.749199039661908E2
 2.767577500000000E8    -3.830620670261426E1    -1.477260230687075E2    -1.077175320386134E-1   -1.018563216593171E2    -1.084504884636163E-1   -1.018527507384933E2    -4.149603366814492E1     1.737933161330049E2
 2.771326250000000E8    -3.818753823047840E1    -1.483789508113562E2    -1.066675050479004E-1   -1.019924034841690E2    -1.086209266615216E-1   -1.019897497674506E2    -4.136768206880923E1     1.725023246352559E2
 2.775075000000000E8    -3.817942810978266E1    -1.485175306488338E2    -1.075842183795829E-1   -1.021264605242502E2    -1.073711126261534E-1   -1.021250859610759E2    -4.116652028391483E1     1.722953048852650E2
 2.778823750000000E8    -3.813472834566218E1    -1.484773889876247E2    -1.066782211940412E-1   -1.022611987232046E2    -1.074065150194049E-1   -1.022569796758702E2    -4.123699346612686E1     1.719660517904146E2
 2.782572500000000E8    -3.798225602102708E1    -1.489418973733156E2    -1.073411996356834E-1   -1.024009133532887E2    -1.080693567631885E-1   -1.023973904272585E2    -4.105448609178196E1     1.712895219319754E2
 2.786321250000000E8    -3.793457940779896E1    -1.486721754211455E2    -1.071941607875311E-1   -1.025390278070721E2    -1.085241143355837E-1   -1.025405688310048E2    -4.098626891382586E1     1.703750451051568E2
 2.790070000000000E8    -3.795596805648248E1    -1.493279831556837E2    -1.087961723416467E-1   -1.026799915522758E2    -1.080831362458888E-1   -1.026783575498588E2    -4.092584399669938E1     1.693568440509186E2
 2.793818750000000E8    -3.776061503817419E1    -1.494109497798146E2    -1.078767218686639E-1   -1.028167758869170E2    -1.077854236977333E-1   -1.028139721265736E2    -4.088112125604900E1     1.679381981506171E2
 2.797567500000000E8    -3.776749302169669E1    -1.495690523741151E2    -1.073658730688824E-1   -1.029512311337333E2    -1.082655857158329E-1   -1.029517872779492E2    -4.079528904369232E1     1.674433774265336E2
 2.801316250000000E8    -3.765222986349428E1    -1.495790734473260E2    -1.072111006970601E-1   -1.030907105843269E2    -1.086442435185933E-1   -1.030870917033282E2    -4.073788324902448E1     1.667828038458865E2
 2.805065000000000E8    -3.766348064644406E1    -1.503039516430589E2    -1.072719959258120E-1   -1.032238141792711E2    -1.080258871470345E-1   -1.032222953450791E2    -4.068764613622701E1     1.654571784667427E2
 2.808813750000000E8    -3.761374485457659E1    -1.505726408550435E2    -1.086310364926409E-1   -1.033621497969959E2    -1.070647924511960E-1   -1.033607874017428E2    -4.052662669982559E1     1.645880161698760E2
 2.812562500000000E8    -3.750699620435845E1    -1.507925786322913E2    -1.075219944230456E-1   -1.035021701263650E2    -1.078427256217314E-1   -1.035011297780458E2    -4.034031938936473E1     1.648699125282072E2
 2.816311250000000E8    -3.744513315828377E1    -1.510526552644880E2    -1.075502818298566E-1   -1.036408365230401E2    -1.084981947987652E-1   -1.036377293247084E2    -4.029260641538525E1     1.648715307596758E2
 2.820060000000000E8    -3.741191115336208E1    -1.505235903273689E2    -1.074327325153683E-1   -1.037784020216118E2    -1.093019161810276E-1   -1.037770913111501E2    -4.023312730877745E1     1.646499200454735E2
 2.823808750000000E8    -3.738933606035305E1    -1.514478656709957E2    -1.083828201055944E-1   -1.039178605318241E2    -1.091303203925035E-1   -1.039119119496737E2    -4.017511645588600E1     1.636015789361560E2
 2.827557500000000E8    -3.736058712895502E1    -1.521519993242651E2    -1.086739150408518E-1   -1.040504808915389E2    -1.089390120640751E-1   -1.040494850838725E2    -4.018005404575204E1     1.634115635942762E2
 2.831306250000000E8    -3.731695948075641E1    -1.529840032835858E2    -1.082709146730704E-1   -1.041900330231755E2    -1.086770216516684E-1   -1.041857853799987E2    -4.007225944016582E1     1.625800258173943E2
 2.835055000000000E8    -3.717458175729472E1    -1.528301151189749E2    -1.083929858701434E-1   -1.043282575525186E2    -1.095921527151126E-1   -1.043224027124441E2    -4.001158848795632E1     1.628261467692545E2
 2.838803750000000E8    -3.720207483166541E1    -1.532543997185789E2    -1.084201903033261E-1   -1.044631648115375E2    -1.101324919652050E-1   -1.044600554177450E2    -3.971784432033759E1     1.626993589034848E2
 2.842552500000000E8    -3.707162756331243E1    -1.536919042996761E2    -1.079588830410299E-1   -1.045991273990035E2    -1.101677645872075E-1   -1.045964616356023E2    -3.965994810031692E1     1.628899915028845E2
 2.846301250000000E8    -3.711922409880566E1    -1.541999339543598E2    -1.087953350860153E-1   -1.047357758859528E2    -1.087335144762408E-1   -1.047343819471877E2    -3.947570219658282E1     1.622260868787057E2
 2.850050000000000E8    -3.704001249052310E1    -1.542158326976236E2    -1.077737153973094E-1   -1.048759234127931E2    -1.086797559628775E-1   -1.048718136493619E2    -3.951646863278550E1     1.614471196662920E2
 2.853798750000000E8    -3.689252920365364E1    -1.550965776172296E2    -1.084553937724181E-1   -1.050114983996829E2    -1.091625728805776E-1   -1.050063457713603E2    -3.940442878146604E1     1.612820301482039E2
 2.857547500000000E8    -3.692765154284510E1    -1.548724612768117E2    -1.085266379493766E-1   -1.051471696383381E2    -1.097917967387878E-1   -1.051436543741881E2    -3.925458402694156E1     1.611514181537064E2
 2.861296250000000E8    -3.686318672978936E1    -1.552903052928982E2    -1.091531775022405E-1   -1.052850572666487E2    -1.092269047970781E-1   -1.052815116679183E2    -3.919467416623854E1     1.615518016580700E2
 2.865045000000000E8    -3.683599017725802E1    -1.558331814023126E2    -1.091150710708627E-1   -1.054197354684362E2    -1.101676966224050E-1   -1.054213051508061E2    -3.909273358012091E1     1.615330170740497E2
 2.868793750000000E8    -3.678578880990158E1    -1.561283568314669E2    -1.097436105070190E-1   -1.055597885611334E2    -1.099375603018202E-1   -1.055560788852840E2    -3.892578524846150E1     1.615074658943872E2
 2.872542500000000E8    -3.678279038863019E1    -1.564755807558169E2    -1.082003276651830E-1   -1.056953748602966E2    -1.104463192035200E-1   -1.056949782816079E2    -3.892937623579274E1     1.607775740196365E2
 2.876291250000000E8    -3.680214480757152E1    -1.569427350564009E2    -1.085760214572605E-1   -1.058321922015440E2    -1.092314335957000E-1   -1.058322678502004E2    -3.876486615343958E1     1.612527766085705E2
 2.880040000000000E8    -3.679207855278835E1    -1.573893620871197E2    -1.081868304909454E-1   -1.059717250644753E2    -1.087749881598258E-1   -1.059700809575055E2    -3.874567157024656E1     1.610107046423720E2
 2.883788750000000E8    -3.670485357804082E1    -1.570294096288712E2    -1.089674748199798E-1   -1.061091347818837E2    -1.085519585704407E-1   -1.061101850977125E2    -3.863461511874715E1     1.613457259762245E2
 2.887537500000000E8    -3.664857397148297E1    -1.577016269819239E2    -1.087172698041129E-1   -1.062496131113020E2    -1.099325053781504E-1   -1.062460710525098E2    -3.850355442984262E1     1.609049895163950E2
 2.891286250000000E8    -3.668403664203291E1    -1.579898708478412E2    -1.098923387430027E-1   -1.063845911182664E2    -1.095114433034332E-1   -1.063887450879843E2    -3.839649695362304E1     1.616272254459172E2
 2.895035000000000E8    -3.667274407816083E1    -1.583457074377264E2    -1.096495267207455E-1   -1.065229318007155E2    -1.098019917146692E-1   -1.065241838454206E2    -3.833692810026098E1     1.618172178755550E2
 2.898783750000000E8    -3.662711115543564E1    -1.589160497840343E2    -1.098136875132354E-1   -1.066625971977771E2    -1.102744826266769E-1   -1.066601604269206E2    -3.826377360179586E1     1.615200210371617E2
 2.902532500000000E8    -3.660283785342217E1    -1.590567113719735E2    -1.099673873548747E-1   -1.067959881177419E2    -1.094450955635133E-1   -1.068010711318181E2    -3.822646651894575E1     1.624403826805855E2
 2.906281250000000E8    -3.651648120180503E1    -1.597625277921722E2    -1.085385872833313E-1   -1.069367441459161E2    -1.101792543110738E-1   -1.069359646773501E2    -3.825933606171087E1     1.624333603771224E2
 2.910030000000000E8    -3.656233164985544E1    -1.599588684459976E2    -1.097586197062507E-1   -1.070743131306706E2    -1.107480244191654E-1   -1.070740927573727E2    -3.806200934056695E1     1.625485242734914E2
 2.913778750000000E8    -3.648319731868561E1    -1.605874397075326E2    -1.095958817868529E-1   -1.072117597438379E2    -1.099294325333708E-1   -1.072138345063942E2    -3.803056135134578E1     1.624931791329925E2
 2.917527500000000E8    -3.645916361565129E1    -1.605519035976434E2    -1.100812718978831E-1   -1.073546191905633E2    -1.089749307851142E-1   -1.073511369625461E2    -3.797550829638024E1     1.626880633666663E2
 2.921276250000000E8    -3.650358226713502E1    -1.610277454191620E2    -1.093070313376135E-1   -1.074926808189569E2    -1.095652380424746E-1   -1.074900176739439E2    -3.787495446812171E1     1.629698279713310E2
 2.925025000000000E8    -3.651859331495291E1    -1.619057475675264E2    -1.091525950578357E-1   -1.076313631829395E2    -1.103864037044281E-1   -1.076251083432222E2    -3.782074256778140E1     1.630004218356255E2
 2.928773750000000E8    -3.645140090838838E1    -1.622513616514654E2    -1.094361566887672E-1   -1.077650549220018E2    -1.099962698223160E-1   -1.077652153974811E2    -3.774607716184347E1     1.632520072460548E2
 2.932522500000000E8    -3.647084309494379E1    -1.627813389195003E2    -1.096696796287952E-1   -1.079012839827561E2    -1.093930384897641E-1   -1.079014511539529E2    -3.782336966502299E1     1.630545452339005E2
 2.936271250000000E8    -3.651103833410051E1    -1.635747978980949E2    -1.101010384574215E-1   -1.080413852017931E2    -1.100271190702505E-1   -1.080362109511485E2    -3.769113187380486E1     1.629587655038541E2
 2.940020000000000E8    -3.655123510033778E1    -1.639778369903305E2    -1.089819942495149E-1   -1.081777930789483E2    -1.103912637377271E-1   -1.081726301226860E2    -3.771740096318765E1     1.633225634821234E2
 2.943768750000000E8    -3.652676991964204E1    -1.645000285620159E2    -1.100486800697435E-1   -1.083133160780639E2    -1.103595990029843E-1   -1.083073933114155E2    -3.760426692180247E1     1.635069119363531E2
 2.947517500000000E8    -3.654964588140999E1    -1.649012395282508E2    -1.099453972429178E-1   -1.084479316045079E2    -1.103215153143271E-1   -1.084429031601644E2    -3.757690026990047E1     1.637008727289347E2
 2.951266250000000E8    -3.654706751639094E1    -1.653970555410743E2    -1.101882766869252E-1   -1.085834939708892E2    -1.103664502473108E-1   -1.085830086892266E2    -3.760730734492142E1     1.640981640762286E2
 2.955015000000000E8    -3.657487267784438E1    -1.657631260051935E2    -1.095422117400562E-1   -1.087198182788647E2    -1.107220691886061E-1   -1.087193958305287E2    -3.759103122646532E1     1.646680661035046E2
 2.958763750000000E8    -3.658364134349236E1    -1.657760074839925E2    -1.089417931088479E-1   -1.088610039807264E2    -1.102840233619726E-1   -1.088559012867884E2    -3.756520742672165E1     1.649233881224372E2
 2.962512500000000E8    -3.663282503879706E1    -1.662045758022929E2    -1.101104303214896E-1   -1.089984852039550E2    -1.096662412640773E-1   -1.089933379218760E2    -3.757523412614061E1     1.652318770222626E2
 2.966261250000000E8    -3.669595090691623E1    -1.664959086441729E2    -1.099985260473217E-1   -1.091314482491386E2    -1.104758733456072E-1   -1.091328622251813E2    -3.748170330747838E1     1.657280477806113E2
 2.970010000000000E8    -3.671583762281078E1    -1.671387828159726E2    -1.102773930391068E-1   -1.092692742712835E2    -1.098719315895005E-1   -1.092710531538418E2    -3.746925828357021E1     1.662937109891090E2
 2.973758750000000E8    -3.671038882642483E1    -1.673180876812961E2    -1.092856337765272E-1   -1.094073642119179E2    -1.108875194591014E-1   -1.094082583810342E2    -3.747269115719203E1     1.664737481244061E2
 2.977507500000000E8    -3.672420741052519E1    -1.678715891195437E2    -1.103470089502488E-1   -1.095449277091670E2    -1.103873906765948E-1   -1.095459021958831E2    -3.742507543475720E1     1.671082573601251E2
 2.981256250000000E8    -3.679025695831685E1    -1.683524624655983E2    -1.107806659382748E-1   -1.096828709857597E2    -1.107043686353674E-1   -1.096821475663077E2    -3.740539564333304E1     1.672735663882535E2
 2.985005000000000E8    -3.679926116522932E1    -1.684437170881220E2    -1.105708128272309E-1   -1.098232282779010E2    -1.104894454250838E-1   -1.098192391774641E2    -3.743230803986655E1     1.679316797915957E2
 2.988753750000000E8    -3.682832335995890E1    -1.690550143371948E2    -1.107051895287559E-1   -1.099585915058487E2    -1.106679782270205E-1   -1.099597017935004E2    -3.745146197841563E1     1.679076958989542E2
 2.992502500000000E8    -3.687388068840659E1    -1.697370154902546E2    -1.115337677219638E-1   -1.100959450714791E2    -1.097579104857448E-1   -1.100986009685174E2    -3.742297917425699E1     1.683741577069154E2
 2.996251250000000E8    -3.681729282050981E1    -1.702305290336597E2    -1.109271392160357E-1   -1.102319367910950E2    -1.109506720281905E-1   -1.102336337375278E2    -3.743197805189552E1     1.687708316935739E2
 3.000000000000000E8    -3.681175898119851E1    -1.709989150739337E2    -1.096200621888785E-1   -1.103699229970797E2    -1.109976115337013E-1   -1.103717360242589E2    -3.745555167520212E1     1.697805767727031E2
