#  HZ   S   DB   R     50.00 
! Rohde & Schwarz Vector Network Analyzer 
! Rohde-Schwarz,ZND-2Port,1328517092102334,3.45
! Created: UTC 3/30/2026, 5:33:56 AM
! freq[Hz]                db:S11                  ang:S11                 db:S21                  ang:S21                 db:S12                  ang:S12                 db:S22                  ang:S22
 1.000000000000000E5    -3.102392811725764E1     9.998662518167592E1     2.274046499331583E-2   -1.362482872490252       3.148316289015331E-2   -1.467000093648593      -3.022493002733736E1     9.358598819840680E1
 4.748750000000000E5    -4.246269444114476E1     8.036072846481051E1    -1.214316356507059E-2   -5.574726000830337E-1   -6.497752178994377E-3   -5.792430021034651E-1   -4.313458979676901E1     7.288305655259427E1
 8.497500000000000E5    -4.728824276254232E1     6.444282547528920E1    -1.981858931609557E-2   -5.486575726877881E-1   -1.265159342884960E-2   -5.524165944597732E-1   -4.702035523626454E1     5.527891434543124E1
 1.224625000000000E6    -5.035078231229494E1     6.297028493689386E1    -1.755406284043359E-2   -6.245849803156106E-1   -1.135078564281462E-2   -6.310161384991519E-1   -4.924005471880361E1     4.676109811982738E1
 1.599500000000000E6    -4.921918647385336E1     6.085896681429840E1    -1.605593505364101E-2   -7.742134172899021E-1   -8.929534470683544E-3   -7.765544305386856E-1   -4.944165009987546E1     5.202884876722712E1
 1.974375000000000E6    -5.113338353893933E1     4.570653917406775E1    -1.915165915169382E-2   -8.627780368500448E-1   -1.242159400519931E-2   -8.659573327090587E-1   -5.024862951036869E1     4.243977135207120E1
 2.349250000000000E6    -5.280294473733552E1     4.913930407558131E1    -1.660944782613131E-2   -9.792259808992899E-1   -1.059693423966801E-2   -9.782337501022265E-1   -5.071006663328887E1     3.893370070987796E1
 2.724125000000000E6    -5.104236468578785E1     5.009327691367935E1    -2.020223111221848E-2   -1.122024762485354      -1.254849178588729E-2   -1.124274017121166      -4.969653309769782E1     3.444940985790561E1
 3.099000000000000E6    -5.019812857050481E1     4.850266940102831E1    -2.043466786303447E-2   -1.263116828911103      -1.431194953703559E-2   -1.265428372515363      -5.007312877914163E1     3.763050584863655E1
 3.473875000000000E6    -5.045059262889203E1     4.497568755439841E1    -2.248240665720677E-2   -1.393701442436547      -1.569432751391781E-2   -1.398273921907054      -4.946643909760538E1     2.911039919091287E1
 3.848750000000000E6    -5.014953479462571E1     4.225339694467980E1    -2.323377427149378E-2   -1.527080735360741      -1.703907159235826E-2   -1.531596174871722      -4.954329530242134E1     3.091780943881396E1
 4.223625000000000E6    -4.973934601480840E1     3.528165085642021E1    -2.543602501881575E-2   -1.655757516185305      -1.963193207678098E-2   -1.658779689349131      -4.865979305434176E1     2.396178872912478E1
 4.598500000000000E6    -4.963073480727310E1     2.908167589424895E1    -2.693761392117853E-2   -1.790517180427888      -2.128507344989877E-2   -1.791848176600228      -4.888078099377953E1     2.466117482378266E1
 4.973375000000000E6    -4.933740955527028E1     2.814545483629606E1    -2.790872442478086E-2   -1.928285596142721      -2.177275816530399E-2   -1.933008595735585      -4.867409363546381E1     2.523392664281703E1
 5.348250000000000E6    -4.905307277141920E1     2.669088360690708E1    -2.953260609504865E-2   -2.058606228272149      -2.269706898723246E-2   -2.063169743884591      -4.881434113951749E1     2.131653078423688E1
 5.723125000000000E6    -4.876327629373117E1     2.452405919886606E1    -3.000820449906710E-2   -2.202096641309091      -2.451334227676216E-2   -2.204593501538922      -4.851073360402361E1     1.968794708294805E1
 6.098000000000000E6    -4.865954248345690E1     1.968277942650543E1    -3.220827222742757E-2   -2.332099540295988      -2.502860997066271E-2   -2.338893666372719      -4.804797124492625E1     1.884303604232797E1
 6.472875000000000E6    -4.878816975606894E1     1.904752670142290E1    -3.273011657759002E-2   -2.462835531148305      -2.646128983594979E-2   -2.468735044042247      -4.758092925416872E1     1.843311408449342E1
 6.847750000000000E6    -4.873245034981618E1     2.127367246577193E1    -3.292242444903166E-2   -2.595590111394796      -2.726391408059458E-2   -2.604059960030213      -4.790612771101085E1     1.339036293048683E1
 7.222625000000000E6    -4.870118067051193E1     1.707856144753839E1    -3.415693406592431E-2   -2.735347302600204      -2.798752782429402E-2   -2.743968409210848      -4.732302393259643E1     1.550401045491167E1
 7.597500000000000E6    -4.799250831332298E1     1.956556125438637E1    -3.350517808419241E-2   -2.880408315645242      -2.753553998753277E-2   -2.883289575000597      -4.702051880469830E1     1.509236207124706E1
 7.972375000000000E6    -4.819008044933475E1     2.114743067375924E1    -3.363957642646680E-2   -3.011354503089252      -2.926175919314553E-2   -3.016879917507445      -4.723715201398657E1     1.172942100158653E1
 8.347250000000000E6    -4.788117844211605E1     1.956339794804224E1    -3.597204481827772E-2   -3.155737773111121      -3.037002908942194E-2   -3.163217471019531      -4.716360387836743E1     1.493590401458827E1
 8.722125000000000E6    -4.779586160946627E1     2.067330319420138E1    -3.531655013536651E-2   -3.297523944113568      -2.998749285472254E-2   -3.300604862272436      -4.694333591177917E1     1.043138935321369E1
 9.097000000000000E6    -4.759173597303877E1     1.761690706960796E1    -3.416983800866266E-2   -3.433275523712545      -2.844899039478130E-2   -3.437016295075168      -4.713583982513291E1     1.415727449160558E1
 9.471875000000000E6    -4.762292946317310E1     2.090004470071810E1    -3.429812500595027E-2   -3.568308325394979      -2.971090998536097E-2   -3.579863746048348      -4.716163631391825E1     1.508081262382962E1
 9.846750000000000E6    -4.790915066918402E1     1.657752599511812E1    -3.385220130050691E-2   -3.706611195818084      -2.988561790486551E-2   -3.716337087942617      -4.736868012374994E1     1.500739832041775E1
 1.022162500000000E7    -4.832193244922800E1     2.458777228798642E1    -3.152101849008603E-2   -3.848958293999113      -2.682682567240323E-2   -3.861878037378206      -4.883979004452626E1     1.649768801688509E1
 1.059650000000000E7    -4.832363100407853E1     2.330239665308060E1    -3.219921563057254E-2   -3.987195298618237      -2.775025254752352E-2   -3.997188651163872      -4.836921952051044E1     1.516395940373426E1
 1.097137500000000E7    -4.806098465045562E1     1.976690935646043E1    -3.174632884940894E-2   -4.130515734002230      -2.873721112045218E-2   -4.137084345560515      -4.818558452610671E1     1.733715903079003E1
 1.134625000000000E7    -4.805323339116221E1     2.115851713268345E1    -3.205289967045741E-2   -4.271096459147322      -2.910657655495097E-2   -4.274166351200528      -4.777339634891484E1     1.565208055642702E1
 1.172112500000000E7    -4.779283389280715E1     2.265599144072134E1    -3.310195143299029E-2   -4.410659548641221      -2.978955665046844E-2   -4.415029396720530      -4.784794623773347E1     1.783178815988995E1
 1.209600000000000E7    -4.775395772825966E1     2.291464262914064E1    -3.413191975151302E-2   -4.549725219414317      -3.098995630577469E-2   -4.555072391546573      -4.776797210201708E1     1.599923732163163E1
 1.247087500000000E7    -4.773293116725387E1     2.232784173143129E1    -3.459448254011485E-2   -4.690986168271875      -3.001322828205182E-2   -4.692598523042740      -4.733240441770181E1     1.547092961551136E1
 1.284575000000000E7    -4.731990245944615E1     2.372191785972900E1    -3.447442733110989E-2   -4.827268609289556      -3.094159260533044E-2   -4.831926161761674      -4.727013158294832E1     1.437081133086363E1
 1.322062500000000E7    -4.734120850084285E1     2.370561203586436E1    -3.452451162428907E-2   -4.964343838382426      -3.122679347639382E-2   -4.970511728554112      -4.714673062638028E1     1.424584064094626E1
 1.359550000000000E7    -4.708644217992135E1     2.405521480717248E1    -3.573281759450983E-2   -5.107545948374829      -3.095011470997069E-2   -5.114674893426352      -4.693406087854702E1     1.353538734039469E1
 1.397037500000000E7    -4.664222011187182E1     2.266626777440239E1    -3.596661996710156E-2   -5.244619758274114      -3.130453262583975E-2   -5.258043546019161      -4.693833773548584E1     1.392024561996194E1
 1.434525000000000E7    -4.674477797376812E1     2.256861077751602E1    -3.653939729933327E-2   -5.384800797260556      -3.306842270033716E-2   -5.393796746226549      -4.667896525215017E1     1.270105697419591E1
 1.472012500000000E7    -4.656824153332049E1     2.395420277426431E1    -3.672899081243766E-2   -5.526158007094724      -3.259979426190547E-2   -5.537513081113254      -4.651210384539613E1     1.396755993118975E1
 1.509500000000000E7    -4.661137861178783E1     2.365326032070903E1    -3.739718197687602E-2   -5.664446131650060      -3.438275682187481E-2   -5.677651536584926      -4.644605632276198E1     1.505883932233883E1
 1.546987500000000E7    -4.637831168283501E1     2.190148554646367E1    -3.784605023579279E-2   -5.805056283426865      -3.445820215528966E-2   -5.814077019437947      -4.638864748670697E1     1.649246026416084E1
 1.584475000000000E7    -4.617175660050421E1     2.179930868079625E1    -3.714748335508417E-2   -5.940531998564059      -3.443576262459050E-2   -5.953474774613585      -4.658809621869813E1     1.536270953777833E1
 1.621962500000000E7    -4.590771992337339E1     1.973348350796239E1    -3.777600118074260E-2   -6.082791534567656      -3.454448694818513E-2   -6.090685095787862      -4.654472992688949E1     1.686701387780288E1
 1.659450000000000E7    -4.566955569933410E1     1.940580323095702E1    -3.858659607659420E-2   -6.224736128105595      -3.454096011599288E-2   -6.234347725453642      -4.670192795515972E1     1.650919898440559E1
 1.696937500000000E7    -4.555781717688745E1     1.932030895820936E1    -3.982221365551986E-2   -6.366492059716504      -3.510496424959848E-2   -6.376292494581457      -4.643223577756955E1     1.493757892112582E1
 1.734425000000000E7    -4.558612648839880E1     2.009507213638696E1    -3.891488560349905E-2   -6.506119679368799      -3.594309377279499E-2   -6.513891121417235      -4.643450788081480E1     1.546869525621964E1
 1.771912500000000E7    -4.548496965797403E1     2.126656813115493E1    -3.991336735620520E-2   -6.641692746061410      -3.524179532907114E-2   -6.654069978301883      -4.641773673833782E1     1.406077888194961E1
 1.809400000000000E7    -4.554301401236618E1     2.083338796889089E1    -4.046738497924324E-2   -6.781041763727657      -3.593596190337407E-2   -6.796020017102692      -4.620952239825006E1     1.288270931539923E1
 1.846887500000000E7    -4.546682193437428E1     1.999317692085722E1    -4.040385840654032E-2   -6.920852679162932      -3.598345453527988E-2   -6.937267497765180      -4.588673222251194E1     1.477040784475893E1
 1.884375000000000E7    -4.557304441650567E1     1.932822387257597E1    -4.191244392428510E-2   -7.059264337235095      -3.771007938032064E-2   -7.072798318047036      -4.570560780100568E1     1.392991207151788E1
 1.921862500000000E7    -4.536883740264416E1     1.902123501040814E1    -4.219970345390883E-2   -7.196293681599367      -3.834897527856013E-2   -7.214524413549362      -4.583216121092686E1     1.480149465344621E1
 1.959350000000000E7    -4.514394154913806E1     1.792907009401053E1    -4.240508787840377E-2   -7.332062787928040      -3.900753189429040E-2   -7.349935825588624      -4.578459607764607E1     1.406204120258998E1
 1.996837500000000E7    -4.491351344152172E1     1.948693261152049E1    -4.218456337164569E-2   -7.465187875270225      -3.956612710458337E-2   -7.490463374827619      -4.580877017160182E1     1.301193560648986E1
 2.034325000000000E7    -4.475058500176054E1     1.911724224439922E1    -4.368287645040245E-2   -7.609533070542820      -3.928875729587015E-2   -7.627570511737108      -4.568871752165420E1     1.315666563015751E1
 2.071812500000000E7    -4.463680589346951E1     1.811629707942911E1    -4.281255495828222E-2   -7.752557269551425      -4.084212373150223E-2   -7.769586837986211      -4.543975028370152E1     1.224077400771148E1
 2.109300000000000E7    -4.440251375681552E1     1.779997353079027E1    -4.526853887589812E-2   -7.895106334745003      -4.259222972959522E-2   -7.906196761734408      -4.527198322435225E1     1.265789868047183E1
 2.146787500000000E7    -4.442659563195121E1     1.709042627268143E1    -4.504422111146363E-2   -8.039678660933722      -4.210564107726321E-2   -8.041007884556034      -4.510978575484047E1     1.327399881755392E1
 2.184275000000000E7    -4.440834605183514E1     1.630216350456584E1    -4.555467754195328E-2   -8.174931244849411      -4.272711904272863E-2   -8.187936698233313      -4.493096575495522E1     1.295379333521519E1
 2.221762500000000E7    -4.435625452785008E1     1.535510713649158E1    -4.556381072012275E-2   -8.313065800223074      -4.322653978728205E-2   -8.324891736893921      -4.507898276755253E1     1.301039949391356E1
 2.259250000000000E7    -4.425580911820720E1     1.520059330758139E1    -4.645214324585135E-2   -8.452454284841608      -4.381285092827195E-2   -8.457413395589327      -4.509435789040859E1     1.230295399100958E1
 2.296737500000000E7    -4.419388195854072E1     1.430358237667630E1    -4.694208403751789E-2   -8.586076882289255      -4.452265129257219E-2   -8.594264008152031      -4.482769645523640E1     1.134077313696751E1
 2.334225000000000E7    -4.408561798932265E1     1.479732404999628E1    -4.806401631483513E-2   -8.726670209620902      -4.504913303962004E-2   -8.733425619663581      -4.484461051994217E1     1.200189501295018E1
 2.371712500000000E7    -4.402204579976294E1     1.384111387746123E1    -4.863648721776012E-2   -8.860735683505169      -4.622053963977055E-2   -8.877782472706038      -4.468892626523449E1     1.175766099289539E1
 2.409200000000000E7    -4.399305298772412E1     1.394649044607708E1    -4.911805583641154E-2   -8.998874031611900      -4.758957491571188E-2   -9.017623297896552      -4.428026689132583E1     1.145226638865103E1
 2.446687500000000E7    -4.393624748761788E1     1.560897442522046E1    -5.045285928151309E-2   -9.146513485043245      -4.725017369549642E-2   -9.156058316045455      -4.447360198545763E1     1.096824365928978E1
 2.484175000000000E7    -4.424876492505852E1     1.521747669604795E1    -4.948686709401851E-2   -9.286410225544985      -4.778422948286277E-2   -9.302542321197588      -4.422422614044664E1     1.219694294171446E1
 2.521662500000000E7    -4.381241889087582E1     1.604367237007349E1    -4.999317287947759E-2   -9.445544210679779      -4.704187238683751E-2   -9.440036483701009      -4.423905183566576E1     1.425504515176467E1
 2.559150000000000E7    -4.392935440990761E1     1.686677766283588E1    -5.031885165524703E-2   -9.584457239519216      -4.746652303543702E-2   -9.581704029818560      -4.413910765857064E1     1.248301680183176E1
 2.596637500000000E7    -4.381214476940119E1     1.716457675945804E1    -5.089111139562838E-2   -9.720619267670026      -4.694072023621094E-2   -9.724061631253759      -4.443819847415529E1     1.246383860867710E1
 2.634125000000000E7    -4.355922949972651E1     1.605341960273662E1    -5.151312137624314E-2   -9.862210838410068      -4.761877799325764E-2   -9.857226861988513      -4.444696495051407E1     1.145635403236733E1
 2.671612500000000E7    -4.359181980536430E1     1.570049908093570E1    -5.204573386581281E-2   -9.998903962967777      -4.746111045160262E-2   -9.998055811465489      -4.429328241258671E1     9.949598678856242
 2.709100000000000E7    -4.349022482753911E1     1.513019332085093E1    -5.192519627124955E-2   -1.013918554376094E1    -4.793579503563691E-2   -1.013584671808288E1    -4.409094113289379E1     1.080812757571874E1
 2.746587500000000E7    -4.357792447024475E1     1.491226831445390E1    -5.185847678854354E-2   -1.027354319123321E1    -4.876394999280901E-2   -1.027833833297963E1    -4.404436858077224E1     1.062529508304562E1
 2.784075000000000E7    -4.355563962279881E1     1.416552716369457E1    -5.205772262922314E-2   -1.041132741654596E1    -4.938725303986582E-2   -1.041295357446499E1    -4.399274532446793E1     9.332782404288166
 2.821562500000000E7    -4.345077237034769E1     1.480428627082579E1    -5.314415761713871E-2   -1.055095648056610E1    -4.919712480718323E-2   -1.055244046429309E1    -4.408797495870934E1     1.007965894590052E1
 2.859050000000000E7    -4.336829158089658E1     1.420613428715899E1    -5.310890918121529E-2   -1.068836351725109E1    -5.020612637896987E-2   -1.069122745721779E1    -4.422969719679991E1     9.764994488525669
 2.896537500000000E7    -4.335477076481072E1     1.363735107373865E1    -5.331709256957223E-2   -1.082756173932811E1    -5.105891076291151E-2   -1.082594742177453E1    -4.405815650028753E1     9.878731027251847
 2.934025000000000E7    -4.346923855202874E1     1.348858083083549E1    -5.458844288963166E-2   -1.096887192836896E1    -5.094026451900477E-2   -1.096555666688320E1    -4.386468320798600E1     9.184738772994997
 2.971512500000000E7    -4.345783081415905E1     1.190592729272920E1    -5.436215802168361E-2   -1.110529343949966E1    -5.175609743625628E-2   -1.110237933536611E1    -4.399015264110549E1     9.759614203181700
 3.009000000000000E7    -4.364735699086390E1     1.279348334191607E1    -5.337090117510213E-2   -1.124183542076902E1    -5.181398614295833E-2   -1.124417573217586E1    -4.389460940170284E1     7.360030704430281
 3.046487500000000E7    -4.350192092469964E1     1.217525111589452E1    -5.411345723073595E-2   -1.137793022303398E1    -5.208025332526609E-2   -1.138009403852174E1    -4.398180942686188E1     6.860566198774936
 3.083975000000000E7    -4.335256488066467E1     1.195419070511484E1    -5.347476622293469E-2   -1.151627842155900E1    -5.157868165543411E-2   -1.151943718552554E1    -4.401280164164981E1     8.107504606193915
 3.121462500000000E7    -4.338775866976419E1     1.081954547453402E1    -5.481006539398943E-2   -1.165333339700389E1    -5.228950585350633E-2   -1.165726124270221E1    -4.378948712827335E1     8.598214189174911
 3.158950000000000E7    -4.332898026472225E1     1.038208086327159E1    -5.568911339020791E-2   -1.179227293642619E1    -5.283872626782400E-2   -1.179492062716703E1    -4.372692776832953E1     7.664554126187041
 3.196437500000000E7    -4.325954622061503E1     1.079548957492915E1    -5.593034747574395E-2   -1.193137386804969E1    -5.310538602955581E-2   -1.192852818147431E1    -4.367793495665721E1     7.135788843264307
 3.233925000000000E7    -4.315185525440406E1     9.735668322821532      -5.588624229017160E-2   -1.206890984265658E1    -5.360994428472497E-2   -1.207430811426655E1    -4.373251022284541E1     8.301699631706768
 3.271412500000000E7    -4.332479838120595E1     1.086088174466897E1    -5.674960178980812E-2   -1.220672839798162E1    -5.353776571962957E-2   -1.221351525446704E1    -4.378865094435213E1     7.731678796159644
 3.308900000000000E7    -4.308814608583801E1     9.419835831725123      -5.721223281844193E-2   -1.234072981985597E1    -5.461527572418620E-2   -1.234731442822572E1    -4.374367459749252E1     8.097473877855071
 3.346387500000000E7    -4.312378803066908E1     9.236206798561383      -5.805834781703265E-2   -1.248425155134693E1    -5.456248694181810E-2   -1.248607580334717E1    -4.359542599427988E1     6.546019656975589
 3.383875000000000E7    -4.322803770434746E1     8.382934138862490      -5.820114088763154E-2   -1.261572579503832E1    -5.439304017140680E-2   -1.262232215701673E1    -4.351897777171207E1     5.852916235958482
 3.421362500000000E7    -4.318314013885056E1     8.862099266811081      -5.743945703813519E-2   -1.275630071694266E1    -5.493538996134237E-2   -1.276142621900173E1    -4.347884351985074E1     5.608029786374725
 3.458850000000000E7    -4.300493681920105E1     8.062777532289259      -5.793261667936207E-2   -1.289806915496138E1    -5.483013646782490E-2   -1.289964238061057E1    -4.350078278433260E1     5.878913535678734
 3.496337500000000E7    -4.304308658896706E1     6.871756257032702      -5.802795560499784E-2   -1.303194918197409E1    -5.625203995452632E-2   -1.303988034543660E1    -4.344032052511323E1     5.607387686015951
 3.533825000000000E7    -4.299271448897122E1     7.091593786054530      -5.766238320438373E-2   -1.316408021075311E1    -5.731043678881283E-2   -1.316867849073253E1    -4.339980879271502E1     5.439550165516591
 3.571312500000000E7    -4.305656346714355E1     6.515619038394132      -5.878520917701818E-2   -1.330278216309193E1    -5.639462128255474E-2   -1.330615565608407E1    -4.314967970168570E1     4.750315092662647
 3.608800000000000E7    -4.292486531074368E1     6.436210891516208      -5.908481469878039E-2   -1.344056470000076E1    -5.669624286128245E-2   -1.344398084219588E1    -4.331886464585735E1     4.310026973687537
 3.646287500000000E7    -4.285195207508400E1     6.163035361634503      -5.890086539753935E-2   -1.357852232834956E1    -5.677042427405992E-2   -1.358405639373726E1    -4.334070541246089E1     4.914489795466258
 3.683775000000000E7    -4.266389199126705E1     6.735617210388282      -5.922435512620666E-2   -1.371544238895899E1    -5.721650117300969E-2   -1.372269339717974E1    -4.334161636864611E1     4.330356637027482
 3.721262500000000E7    -4.272178959021107E1     5.525973009030165      -5.930751956655630E-2   -1.384962979944833E1    -5.732792952213399E-2   -1.386069533186064E1    -4.305864547832398E1     4.004080821892884
 3.758750000000000E7    -4.275468235200299E1     5.465030325340007      -5.985928000532131E-2   -1.398832871574018E1    -5.771164709822977E-2   -1.399840416837690E1    -4.291001167576340E1     4.048382177388419
 3.796237500000000E7    -4.279101502867644E1     6.181009720489415      -6.049364715092390E-2   -1.413326248649306E1    -5.833976846079708E-2   -1.412953115075438E1    -4.288294551919687E1     1.820598348104562
 3.833725000000000E7    -4.267075581063768E1     4.897298940344504      -6.005554527194783E-2   -1.426506166276108E1    -5.888393347175841E-2   -1.427564420459831E1    -4.313397078987844E1     2.636178217846805
 3.871212500000000E7    -4.263055879861046E1     4.600734468073511      -6.058259850640581E-2   -1.440391493406811E1    -5.910945952706754E-2   -1.441579444474436E1    -4.287909537545502E1     2.359200752345624
 3.908700000000000E7    -4.255474626907319E1     4.445142236134934      -6.162056683976105E-2   -1.454320315084921E1    -5.869412655705596E-2   -1.455622882665763E1    -4.298016743458942E1     2.211219388568654
 3.946187500000000E7    -4.261465353966653E1     3.744681061896604      -6.056490734688967E-2   -1.467979038318958E1    -5.913812955715794E-2   -1.468795166924247E1    -4.276661772073246E1     1.734157636872829
 3.983675000000000E7    -4.255814399403099E1     3.638143521636410      -6.104064473465610E-2   -1.481619968816476E1    -6.036770466809328E-2   -1.482819262247274E1    -4.304146575958829E1     2.232474715915278
 4.021162500000000E7    -4.264757767997101E1     3.335398200187937      -6.156079284346398E-2   -1.495461308500208E1    -6.035525866799996E-2   -1.496369940535424E1    -4.276272124647231E1     1.181232647370632
 4.058650000000000E7    -4.260339508959653E1     3.168750379991354      -6.152528195922159E-2   -1.509214268653862E1    -5.996847091663907E-2   -1.510209401714170E1    -4.280429925647375E1     1.571097188615814
 4.096137500000000E7    -4.246229876648250E1     4.304421372255407      -6.182048209041216E-2   -1.522783204529132E1    -6.042327692370911E-2   -1.524327713776597E1    -4.286944491616531E1     5.242483837698753E-1
 4.133625000000000E7    -4.257502535553672E1     2.696354936410885      -6.238870595960198E-2   -1.537156608800842E1    -6.023643388620669E-2   -1.537654354722753E1    -4.283989208365276E1     1.205921333812945E-1
 4.171112500000000E7    -4.251550237694823E1     2.346678977114488      -6.223088426529479E-2   -1.551013736244832E1    -5.993916117868189E-2   -1.551652543308786E1    -4.276379882585157E1     1.515877833398269
 4.208600000000000E7    -4.244579600478608E1     1.931378272527684      -6.240294897732804E-2   -1.564545069451691E1    -6.029859707224686E-2   -1.565508620618986E1    -4.291392566498426E1     1.314385158810279
 4.246087500000000E7    -4.258036793923339E1     3.005406308164257      -6.223901425837595E-2   -1.578680507296931E1    -6.006613516088008E-2   -1.579433482273432E1    -4.296141733625171E1     4.181014431687562E-1
 4.283575000000000E7    -4.244897666109901E1     2.223973679279730      -6.204965655423876E-2   -1.592556095211089E1    -6.252364297902085E-2   -1.593316455686051E1    -4.277994320472225E1     1.917806993712449E-1
 4.321062500000000E7    -4.236623992280060E1     1.400842205523809      -6.320808689610417E-2   -1.606242278226582E1    -6.312458528349212E-2   -1.606934689535623E1    -4.260671234907426E1     4.524414451498688E-1
 4.358550000000000E7    -4.240275397123057E1     1.568803530865880      -6.456890071380407E-2   -1.619946809470392E1    -6.286526822495914E-2   -1.621014214384707E1    -4.256174392927568E1    -1.391564127699053E-1
 4.396037500000000E7    -4.248205046672562E1     7.491045202225958E-1   -6.477381214673185E-2   -1.633564675152354E1    -6.244228233159980E-2   -1.634534042304138E1    -4.262335949587346E1    -4.908925943958938E-1
 4.433525000000000E7    -4.235178551074475E1     3.805650819623325E-1   -6.469220471706152E-2   -1.647496092614648E1    -6.297310574720631E-2   -1.648450488229573E1    -4.265863384156177E1    -1.054222701817449
 4.471012500000000E7    -4.236939743852303E1     9.814273196479281E-1   -6.514389303758367E-2   -1.661476183629107E1    -6.304084408175953E-2   -1.662168711109203E1    -4.277603042447734E1    -1.263298791528083
 4.508500000000000E7    -4.235228812158538E1    -2.871029195024221E-1   -6.419137627128407E-2   -1.675054709335020E1    -6.279609728685012E-2   -1.676128189231382E1    -4.265341328573366E1    -1.035073147498615
 4.545987500000000E7    -4.234134919258956E1    -9.971757279479788E-2   -6.518919089162109E-2   -1.688668020765472E1    -6.324565585275360E-2   -1.689403834729137E1    -4.264553074835525E1    -1.835494149752584
 4.583475000000000E7    -4.233762504971467E1    -1.934625813294045      -6.560283062271412E-2   -1.702472993963227E1    -6.353274728629535E-2   -1.703071049904906E1    -4.270189243572401E1    -1.497906366523936
 4.620962500000000E7    -4.226980991774567E1    -1.967263750101739      -6.598596027711461E-2   -1.715706906018236E1    -6.471105526951614E-2   -1.717097441505162E1    -4.248730557360125E1    -2.107918877053073
 4.658450000000000E7    -4.225217934182550E1    -2.153868187955164      -6.582286337138935E-2   -1.729564396373090E1    -6.475262455392559E-2   -1.730689747031334E1    -4.236402367956651E1    -3.503847555581212
 4.695937500000000E7    -4.219106518849607E1    -1.638905542717028      -6.725326387323259E-2   -1.743348011573034E1    -6.521740298351961E-2   -1.744738118694382E1    -4.252171132567240E1    -3.993415165058078
 4.733425000000000E7    -4.230578620480334E1    -1.838371949091544      -6.753023231483521E-2   -1.757486868718736E1    -6.496514565726066E-2   -1.758465419203207E1    -4.251089812178123E1    -3.715979159847452
 4.770912500000000E7    -4.224649669785650E1    -2.356537982063784      -6.769086433059346E-2   -1.771319783341602E1    -6.494518711254854E-2   -1.772268352716343E1    -4.261326639681832E1    -2.872883890413194
 4.808400000000000E7    -4.220185529018138E1    -3.643728442950971      -6.757231757228492E-2   -1.784995607573918E1    -6.550532380598971E-2   -1.785971269830027E1    -4.238273464999204E1    -3.078868648255827
 4.845887500000000E7    -4.225971448185594E1    -2.519488252735223      -6.766597618989154E-2   -1.798742502225725E1    -6.593033041846028E-2   -1.799584165669494E1    -4.229732606465809E1    -3.999615256612624
 4.883375000000000E7    -4.225779780441754E1    -2.540755363848820      -6.708853029371231E-2   -1.812589620906651E1    -6.543005371700440E-2   -1.813332060581822E1    -4.224540161824522E1    -4.944909770441714
 4.920862500000000E7    -4.227381353513746E1    -3.981311174486854      -6.825535753485118E-2   -1.826402981854723E1    -6.658991599779704E-2   -1.827064712205961E1    -4.223425700442552E1    -5.216522950353165
 4.958350000000000E7    -4.224044028777280E1    -3.600671962009293      -6.862069284449433E-2   -1.840010551285795E1    -6.661749245695169E-2   -1.840826516401314E1    -4.221196702473328E1    -5.530887645797183
 4.995837500000000E7    -4.222360041583329E1    -3.798846246121742      -6.827490574725681E-2   -1.853726331759008E1    -6.648324357938826E-2   -1.854846008592005E1    -4.233953208097907E1    -5.812326789969329
 5.033325000000000E7    -4.228090221030855E1    -4.352704954767566      -6.772899321476436E-2   -1.867582004753697E1    -6.790285942771002E-2   -1.868842510025101E1    -4.227263688417875E1    -4.880217836730484
 5.070812500000000E7    -4.221883380508072E1    -3.899278582025484      -6.852959474114681E-2   -1.881852389918473E1    -6.809569530590648E-2   -1.882456836924424E1    -4.208064759400614E1    -4.704921905839536
 5.108300000000000E7    -4.228422548458254E1    -4.079235459279714      -6.907121545968649E-2   -1.895816446724930E1    -6.694439817315045E-2   -1.896108506075417E1    -4.213643342066501E1    -4.546207782166767
 5.145787500000000E7    -4.230358661684690E1    -4.446062751132733      -6.865319913823438E-2   -1.909539187658032E1    -6.746922539179677E-2   -1.910037108696113E1    -4.217659888847499E1    -5.404178466929070
 5.183275000000000E7    -4.228256657551213E1    -5.260093755722521      -6.879228004411830E-2   -1.923209380026511E1    -6.766382379369727E-2   -1.923802315835151E1    -4.221849392473838E1    -5.416876400370009
 5.220762500000000E7    -4.231035145583627E1    -5.810160566584528      -6.874314518643453E-2   -1.937079468423416E1    -6.765510808844566E-2   -1.937563849281483E1    -4.231458725282067E1    -5.732365653973285
 5.258250000000000E7    -4.237577626703156E1    -5.433533871209900      -6.951751880138633E-2   -1.950832504171389E1    -6.790058397009521E-2   -1.951578860297825E1    -4.216102576558450E1    -6.560445442287025
 5.295737500000000E7    -4.228483876153395E1    -5.240661464862045      -6.938569065637770E-2   -1.964673060561426E1    -6.822054945838167E-2   -1.965312865134843E1    -4.207487687548923E1    -7.753199944283021
 5.333225000000000E7    -4.228290167193207E1    -6.407563286760740      -6.889009724000154E-2   -1.978451185408965E1    -6.867143442653363E-2   -1.979213424995461E1    -4.216466071053865E1    -7.032526847490442
 5.370712500000000E7    -4.220843648600763E1    -6.260670415616131      -6.933242079640947E-2   -1.992391041831916E1    -6.885960579820606E-2   -1.993079845640515E1    -4.223946996102333E1    -6.481930908389416
 5.408200000000000E7    -4.230915913938957E1    -5.846424979660615      -6.948726639253221E-2   -2.006045166088153E1    -6.914223753965283E-2   -2.006911327277876E1    -4.221089039750549E1    -5.894721681405655
 5.445687500000000E7    -4.220960200417930E1    -6.549371829317603      -6.996529586453364E-2   -2.019924754394986E1    -6.892611708392954E-2   -2.020513786966729E1    -4.222479438377466E1    -6.723294955906937
 5.483175000000000E7    -4.227480110301853E1    -6.791019769795513      -7.034331325193782E-2   -2.033830871799796E1    -6.866502685617634E-2   -2.034212266345149E1    -4.217912007808236E1    -7.718287395563776
 5.520662500000000E7    -4.230600792771987E1    -7.322060528613910      -7.022580782493801E-2   -2.047298485351400E1    -6.863676235970170E-2   -2.047862738243690E1    -4.205945470870215E1    -8.286147026998691
 5.558150000000000E7    -4.222063087999747E1    -7.654709925092225      -6.957658301584554E-2   -2.061208936166221E1    -6.932698502931686E-2   -2.061540823521490E1    -4.199744061180911E1    -8.237486600622621
 5.595637500000000E7    -4.231246858087157E1    -8.062613694028931      -6.992568649961753E-2   -2.074841091564522E1    -6.945562461341145E-2   -2.075366287607220E1    -4.210298687884047E1    -8.391212449352391
 5.633125000000000E7    -4.218614056002633E1    -8.430512215224148      -7.050392583476758E-2   -2.088586439704826E1    -6.935277541871383E-2   -2.089417173408674E1    -4.211098163330747E1    -8.800559886344260
 5.670612500000000E7    -4.221565620918107E1    -8.504162169196251      -7.049714064731699E-2   -2.102516075236048E1    -6.961406141882344E-2   -2.102951610529379E1    -4.210507482607194E1    -8.751771646814278
 5.708100000000000E7    -4.231575909100408E1    -8.473789393361981      -6.998671494137856E-2   -2.116136194116791E1    -6.975557307498240E-2   -2.116782442099170E1    -4.194309211451014E1    -9.308254272512988
 5.745587500000000E7    -4.229717660090192E1    -9.168638255319310      -7.119220429259471E-2   -2.130219443842913E1    -6.989998215190098E-2   -2.130072724581422E1    -4.200742939672583E1    -9.741621152345472
 5.783075000000000E7    -4.232249427432172E1    -9.573465205807077      -7.052697684429404E-2   -2.144096133638178E1    -7.097507924309716E-2   -2.144021858755675E1    -4.202893070367166E1    -9.781013861695135
 5.820562500000000E7    -4.227002475708112E1    -8.730924761874496      -7.074944683357021E-2   -2.157930968989434E1    -6.961953474709022E-2   -2.157781093808287E1    -4.199191384664358E1    -9.872079681008104
 5.858050000000000E7    -4.232315737617090E1    -9.308221579779046      -7.117514114197383E-2   -2.171664837832699E1    -7.012695701900365E-2   -2.171714126423960E1    -4.208101082116671E1    -9.829811069365283
 5.895537500000000E7    -4.229950556002602E1    -8.772156148304360      -7.109651731336697E-2   -2.185313626649929E1    -7.053627158776950E-2   -2.185485603204953E1    -4.197748881451574E1    -1.002459387866757E1
 5.933025000000000E7    -4.227447883674803E1    -9.439651632511119      -7.069243308109111E-2   -2.199204696363304E1    -7.077837219475593E-2   -2.199249115537845E1    -4.208288177758980E1    -1.026158436867505E1
 5.970512500000000E7    -4.230842098861459E1    -1.013171081510609E1    -7.177669059210470E-2   -2.213275335298012E1    -7.075626427254834E-2   -2.212794256190802E1    -4.194221534784538E1    -1.049278077566973E1
 6.008000000000000E7    -4.223856036906355E1    -1.018457516735972E1    -7.203195345121394E-2   -2.226993212193285E1    -7.014729133313882E-2   -2.226643706698582E1    -4.190995583345796E1    -1.098489286584461E1
 6.045487500000000E7    -4.225086698805061E1    -9.766585111175969      -7.107922279119505E-2   -2.240957379253729E1    -7.056200202905265E-2   -2.240514321640707E1    -4.190896610223190E1    -1.031234632024234E1
 6.082975000000000E7    -4.233538158163345E1    -1.098507808656936E1    -7.204245574082074E-2   -2.254308748385064E1    -7.110643027631104E-2   -2.254412397514574E1    -4.193443791401801E1    -1.057804801607366E1
 6.120462500000000E7    -4.237763766452009E1    -1.091004056967180E1    -7.142390552137159E-2   -2.268287954275720E1    -7.117188903551784E-2   -2.267991585618273E1    -4.200832420076343E1    -1.123480906666849E1
 6.157950000000000E7    -4.225760325719210E1    -1.102435314958340E1    -7.125220797854753E-2   -2.282027729221334E1    -7.071340624330645E-2   -2.281574058885039E1    -4.192240505375453E1    -1.101467585838110E1
 6.195437500000000E7    -4.216886534122280E1    -1.091739091241650E1    -7.237509635263224E-2   -2.295528695054301E1    -7.087046973538719E-2   -2.295220794246072E1    -4.190521110027865E1    -1.286970148960880E1
 6.232925000000000E7    -4.239111746638820E1    -1.130354830759991E1    -7.189083544878960E-2   -2.309428895872788E1    -7.083487824056296E-2   -2.309089745925953E1    -4.182408968710506E1    -1.248583193067834E1
 6.270412500000000E7    -4.243875877885282E1    -1.117328902710154E1    -7.211356422388072E-2   -2.323186909701239E1    -7.052294342652579E-2   -2.323163244376095E1    -4.193352922839354E1    -1.133725327563440E1
 6.307900000000000E7    -4.233579995034490E1    -1.141859744386664E1    -7.274407919748578E-2   -2.337239097641766E1    -7.072997076820355E-2   -2.336885847221694E1    -4.193485577448052E1    -1.187537839298006E1
 6.345387500000000E7    -4.238860590553234E1    -1.255899360109205E1    -7.257362073689994E-2   -2.350745338956239E1    -7.128665104985761E-2   -2.350535486541034E1    -4.191860736255399E1    -1.243062865917757E1
 6.382875000000000E7    -4.248543837033451E1    -1.245739335691179E1    -7.174771817653310E-2   -2.364739475356815E1    -7.089112662814126E-2   -2.364404954317257E1    -4.179203074162758E1    -1.269166611239473E1
 6.420362500000000E7    -4.258267748438031E1    -1.187542072665894E1    -7.268196434226898E-2   -2.378511118479855E1    -7.117118185738598E-2   -2.378294535161857E1    -4.180177328084227E1    -1.323388195915319E1
 6.457850000000000E7    -4.255621264964339E1    -1.238847683547161E1    -7.265386064190352E-2   -2.392216126743519E1    -7.096117666434083E-2   -2.392067027777664E1    -4.175927035665252E1    -1.307456846331676E1
 6.495337500000000E7    -4.247025386821160E1    -1.305768109772665E1    -7.331533390140547E-2   -2.406038577976161E1    -7.069036297566568E-2   -2.405958300486737E1    -4.177530114944032E1    -1.309743949790173E1
 6.532825000000000E7    -4.222772688519922E1    -1.280907539568322E1    -7.288703654022997E-2   -2.419708791814559E1    -7.107102688330162E-2   -2.419934663797629E1    -4.192866855751600E1    -1.344074830838316E1
 6.570312500000000E7    -4.225353661405179E1    -1.256184634933244E1    -7.276668977531908E-2   -2.433878869187598E1    -7.108951028253793E-2   -2.433572902656920E1    -4.190356458166093E1    -1.360809471207058E1
 6.607800000000000E7    -4.228059445201838E1    -1.309376576457054E1    -7.253105975002382E-2   -2.447765325090033E1    -7.116567654729333E-2   -2.447110981070073E1    -4.181026632739994E1    -1.422111408719808E1
 6.645287500000000E7    -4.224489587077193E1    -1.293667977435081E1    -7.249295134249699E-2   -2.461534763482235E1    -7.117646782589086E-2   -2.460964648640112E1    -4.180216883185768E1    -1.414252068481863E1
 6.682775000000000E7    -4.251652861834843E1    -1.409740204981601E1    -7.255227905643044E-2   -2.475318312396056E1    -7.149849232347348E-2   -2.475113860711485E1    -4.176864202475763E1    -1.363687935936244E1
 6.720262500000000E7    -4.237544971808362E1    -1.449003692183319E1    -7.306895576898084E-2   -2.489062902881150E1    -7.089025941085975E-2   -2.488731886690836E1    -4.175470498387529E1    -1.489628140954312E1
 6.757750000000000E7    -4.236859974415255E1    -1.370610867678635E1    -7.373213789826004E-2   -2.503069110283504E1    -7.092060901833781E-2   -2.502741972470914E1    -4.189267194904055E1    -1.485268836142214E1
 6.795237500000000E7    -4.233603561709151E1    -1.391594503747250E1    -7.384548870472797E-2   -2.517200873953617E1    -7.125696204664476E-2   -2.516642064691928E1    -4.173387656555193E1    -1.548163710791722E1
 6.832725000000000E7    -4.243358262404605E1    -1.382301447740627E1    -7.356725685109526E-2   -2.530535530024162E1    -7.178204633499329E-2   -2.530615384172703E1    -4.182783157182036E1    -1.512694277227997E1
 6.870212500000000E7    -4.242226830064101E1    -1.352405037927720E1    -7.276048120787801E-2   -2.544629528285568E1    -7.120240911501906E-2   -2.544462335339290E1    -4.181257656570704E1    -1.540149085320819E1
 6.907700000000000E7    -4.246515946660908E1    -1.429245870454746E1    -7.376136710002117E-2   -2.558253119988440E1    -7.114796948016922E-2   -2.558190387511253E1    -4.172063087483316E1    -1.596033245347022E1
 6.945187500000000E7    -4.235803833929660E1    -1.543182961528911E1    -7.359427700390440E-2   -2.571925338395338E1    -7.151477942503257E-2   -2.572112710558079E1    -4.177085612630600E1    -1.552577024829766E1
 6.982675000000000E7    -4.244820053127441E1    -1.564547933477981E1    -7.392276844871924E-2   -2.585629647052952E1    -7.182946916554320E-2   -2.585572720316977E1    -4.174076423475199E1    -1.555046894832226E1
 7.020162500000000E7    -4.234850757803356E1    -1.534073541844228E1    -7.407050607806846E-2   -2.599559283041230E1    -7.090116512241047E-2   -2.599736709926523E1    -4.185335909116844E1    -1.565224835266199E1
 7.057650000000000E7    -4.249699566848950E1    -1.532929999874101E1    -7.361653255243884E-2   -2.613536507452394E1    -7.178443907668283E-2   -2.613622576041076E1    -4.171625576720631E1    -1.614122496043741E1
 7.095137500000000E7    -4.239762010981870E1    -1.531957030050404E1    -7.339824821855330E-2   -2.627541955959269E1    -7.169268896098931E-2   -2.627698149967190E1    -4.174721034948835E1    -1.591830393647699E1
 7.132625000000000E7    -4.243134384718599E1    -1.604652275440439E1    -7.416927268410363E-2   -2.641430520901955E1    -7.199637783417802E-2   -2.641429037837559E1    -4.177968697122825E1    -1.588675464577194E1
 7.170112500000000E7    -4.249328110855554E1    -1.622180577770413E1    -7.440703788056921E-2   -2.654898834650952E1    -7.176825936540365E-2   -2.655019686756401E1    -4.177335122984120E1    -1.678792812409561E1
 7.207600000000000E7    -4.241875881484778E1    -1.684098547204729E1    -7.444753138097651E-2   -2.668580041016465E1    -7.190016827773359E-2   -2.669010855072084E1    -4.175490101583669E1    -1.601401171868974E1
 7.245087500000000E7    -4.246952087429571E1    -1.684269786818572E1    -7.455762492891689E-2   -2.682656672496283E1    -7.178982334091519E-2   -2.682750217671589E1    -4.180354342565688E1    -1.615440169349019E1
 7.282575000000000E7    -4.231257337869314E1    -1.655649723004714E1    -7.427431398769971E-2   -2.696460838079261E1    -7.201779595820179E-2   -2.696984648929425E1    -4.177029038374808E1    -1.664280322624116E1
 7.320062500000000E7    -4.236466371522620E1    -1.654035912530346E1    -7.410207010682525E-2   -2.710354868145479E1    -7.264719349769554E-2   -2.710796845139381E1    -4.166100491438876E1    -1.622997824585722E1
 7.357550000000000E7    -4.252581625585269E1    -1.550198378152613E1    -7.451585450348139E-2   -2.724542202380770E1    -7.177347402209427E-2   -2.724404232600581E1    -4.170129381494376E1    -1.742210989491206E1
 7.395037500000000E7    -4.259671635283801E1    -1.695875741115428E1    -7.418735663133430E-2   -2.737979974645638E1    -7.239405309879970E-2   -2.738760541255817E1    -4.178394546038489E1    -1.687454300601008E1
 7.432525000000000E7    -4.253877865144780E1    -1.699748159875094E1    -7.348496300065735E-2   -2.751816894404179E1    -7.248745460052894E-2   -2.752332115464944E1    -4.166971557662991E1    -1.820865720627802E1
 7.470012500000000E7    -4.248964396563611E1    -1.794732782337058E1    -7.459570066252730E-2   -2.765165857153466E1    -7.319517787787294E-2   -2.765883070752477E1    -4.176211834307041E1    -1.837834579166822E1
 7.507500000000000E7    -4.258634172143785E1    -1.782961473244101E1    -7.518443841852956E-2   -2.779072687753865E1    -7.280595669131698E-2   -2.779609606067002E1    -4.161715768846513E1    -1.834307631733995E1
 7.544987500000000E7    -4.253452312416812E1    -1.771281099004706E1    -7.453898246368219E-2   -2.793060880896059E1    -7.287599448675094E-2   -2.793186708403639E1    -4.181858875477946E1    -1.773131492942712E1
 7.582475000000000E7    -4.252894543493407E1    -1.815099534778913E1    -7.463912631432158E-2   -2.806846787677860E1    -7.308778896621621E-2   -2.807291544151270E1    -4.169718314904912E1    -1.787953958890899E1
 7.619962500000000E7    -4.253400116370901E1    -1.772233368615506E1    -7.514357088719918E-2   -2.820567025364164E1    -7.315839133607563E-2   -2.821289062016274E1    -4.162744079693859E1    -1.847592608143134E1
 7.657450000000000E7    -4.234145313067830E1    -1.790414343128122E1    -7.485895368677470E-2   -2.834633214930643E1    -7.219184075486790E-2   -2.835066140021782E1    -4.148197045606919E1    -1.861195456014223E1
 7.694937500000000E7    -4.252721776954839E1    -1.855300207118265E1    -7.519774876900587E-2   -2.848190218733737E1    -7.342238116811975E-2   -2.848589210498112E1    -4.167620336064548E1    -1.867334627066287E1
 7.732425000000000E7    -4.259733256029834E1    -1.831484105236932E1    -7.556012065141762E-2   -2.862151234837575E1    -7.389585447365241E-2   -2.862637798670041E1    -4.170544475619977E1    -1.870094748186993E1
 7.769912500000000E7    -4.257451124492093E1    -1.892772581387247E1    -7.570650014735529E-2   -2.875805542555304E1    -7.343312395557569E-2   -2.876567613431001E1    -4.156952263729883E1    -1.928153375349075E1
 7.807400000000000E7    -4.267486707393205E1    -1.983811737571568E1    -7.479150796014643E-2   -2.889717239273512E1    -7.361789122061282E-2   -2.890608409226182E1    -4.152878699011134E1    -1.882301147320962E1
 7.844887500000000E7    -4.267907353051052E1    -1.912970382580333E1    -7.561972352347184E-2   -2.903490167604139E1    -7.422148360514415E-2   -2.903969090834827E1    -4.150744027271852E1    -1.967816147671303E1
 7.882375000000000E7    -4.260052390430749E1    -1.954226569936456E1    -7.637438154387539E-2   -2.917331554806771E1    -7.424468405226747E-2   -2.917908400086472E1    -4.135668892303434E1    -1.994233062520514E1
 7.919862500000000E7    -4.244885532666554E1    -1.986224196242306E1    -7.521801763666115E-2   -2.931001923322768E1    -7.405805885703884E-2   -2.931659265100619E1    -4.150519900160431E1    -1.979091881019041E1
 7.957350000000000E7    -4.242852418757902E1    -1.976741886971568E1    -7.518397358530847E-2   -2.945077278631216E1    -7.496886815221673E-2   -2.945441914973025E1    -4.156521700921864E1    -2.001116593951460E1
 7.994837500000000E7    -4.242838173003771E1    -2.071229044707006E1    -7.586068152093887E-2   -2.959062388947060E1    -7.443524368321469E-2   -2.959269244760787E1    -4.155696489176614E1    -2.006784748952274E1
 8.032325000000000E7    -4.237827959527633E1    -2.047353582058503E1    -7.618893752875082E-2   -2.972490584824232E1    -7.423900268962046E-2   -2.973390296081774E1    -4.163271113436445E1    -2.073457871634231E1
 8.069812500000000E7    -4.258928491522470E1    -2.053063676779403E1    -7.574882765274553E-2   -2.986484891257466E1    -7.402601335537318E-2   -2.987325587551210E1    -4.155823715932535E1    -2.079426431992091E1
 8.107300000000000E7    -4.276481190995413E1    -2.066653186050891E1    -7.562618138047082E-2   -3.000425507619415E1    -7.374749234114837E-2   -3.000921160966352E1    -4.161526886428171E1    -2.105642880171213E1
 8.144787500000000E7    -4.254409938015475E1    -2.085806204619380E1    -7.532387044570152E-2   -3.014298797536255E1    -7.477766772137849E-2   -3.014830382983394E1    -4.144610297802010E1    -2.084134278822427E1
 8.182275000000000E7    -4.244284738377214E1    -2.065137718550165E1    -7.639416930744830E-2   -3.028074050420912E1    -7.557024556945470E-2   -3.028680423344939E1    -4.157082170547176E1    -2.091676488739936E1
 8.219762500000000E7    -4.235802674613525E1    -2.107313449170041E1    -7.636215766639283E-2   -3.042147730828506E1    -7.502846281549795E-2   -3.042644862938339E1    -4.168624336690450E1    -2.104029643135670E1
 8.257250000000000E7    -4.247998964294048E1    -2.160548817189032E1    -7.631866862431119E-2   -3.055580231334107E1    -7.481982452577557E-2   -3.056474344494503E1    -4.163594734818859E1    -2.151506619415951E1
 8.294737500000000E7    -4.257188773723719E1    -2.240863536842108E1    -7.688487249023443E-2   -3.069550015918691E1    -7.513569279314020E-2   -3.070069678221170E1    -4.146024836461054E1    -2.256875005025799E1
 8.332225000000000E7    -4.260705234736710E1    -2.304032000449958E1    -7.620948989848643E-2   -3.083360129767595E1    -7.615982211424734E-2   -3.084030208271461E1    -4.141668365073895E1    -2.192917696536248E1
 8.369712500000000E7    -4.260639288951882E1    -2.222589742817093E1    -7.597628563615050E-2   -3.097104875769032E1    -7.544907713841724E-2   -3.097583039210560E1    -4.142931054034793E1    -2.260088415312544E1
 8.407200000000000E7    -4.258770168328326E1    -2.173287912708376E1    -7.665484702686416E-2   -3.111005223340703E1    -7.600227050606298E-2   -3.111527611891742E1    -4.166081742915759E1    -2.192113279974406E1
 8.444687500000000E7    -4.260908408986676E1    -2.234355777944593E1    -7.649805345015487E-2   -3.124702987431628E1    -7.607104970854639E-2   -3.125500205386592E1    -4.153595355998918E1    -2.254844911339662E1
 8.482175000000000E7    -4.267321746553790E1    -2.179754741346526E1    -7.645987954743068E-2   -3.138689321103574E1    -7.605417803169273E-2   -3.139409771215832E1    -4.153256943943482E1    -2.328398497476917E1
 8.519662500000000E7    -4.261856497396017E1    -2.172771136133192E1    -7.624320137607352E-2   -3.152541816755479E1    -7.544854839164077E-2   -3.153134701980118E1    -4.152574272851763E1    -2.350840124469318E1
 8.557150000000000E7    -4.258755509759566E1    -2.297959769417360E1    -7.767791864728098E-2   -3.166319485444376E1    -7.498606329977867E-2   -3.167140637302897E1    -4.156723219722141E1    -2.239684249784888E1
 8.594637500000000E7    -4.254768883723213E1    -2.333025646537835E1    -7.719913799652869E-2   -3.180095380014673E1    -7.580255872422187E-2   -3.180481883744056E1    -4.138024489446135E1    -2.295397317550495E1
 8.632125000000000E7    -4.257289006894241E1    -2.366897423736287E1    -7.755067904668762E-2   -3.194027235508841E1    -7.568551629129910E-2   -3.194630882209187E1    -4.148381443394216E1    -2.287765573156693E1
 8.669612500000000E7    -4.251949407613423E1    -2.412392816014095E1    -7.728888715508951E-2   -3.207870902642659E1    -7.580178197249191E-2   -3.208133648965148E1    -4.154397421379021E1    -2.295331940422324E1
 8.707100000000000E7    -4.261367075303743E1    -2.454940493433022E1    -7.686690843036320E-2   -3.221460056002589E1    -7.625733678927457E-2   -3.221890329474729E1    -4.138170054711055E1    -2.310006156371481E1
 8.744587500000000E7    -4.257911131792323E1    -2.426237763998062E1    -7.692810944457311E-2   -3.235487166264330E1    -7.620010885309834E-2   -3.235932165189226E1    -4.153896505111310E1    -2.379841184113024E1
 8.782075000000000E7    -4.260753291097014E1    -2.531869495587617E1    -7.804478004066874E-2   -3.248969415995133E1    -7.559427659307685E-2   -3.249992146262034E1    -4.152644669293798E1    -2.348947399663121E1
 8.819562500000000E7    -4.272921536196512E1    -2.591699675044317E1    -7.796320591243278E-2   -3.262920268495247E1    -7.671611727189509E-2   -3.263701767110099E1    -4.144867113694783E1    -2.412473598769077E1
 8.857050000000000E7    -4.259503617311523E1    -2.530373851986674E1    -7.726742662211268E-2   -3.276972950704469E1    -7.721786846378222E-2   -3.277743799357660E1    -4.134238754684485E1    -2.362907739611602E1
 8.894537500000000E7    -4.277435411698217E1    -2.547434784914201E1    -7.784829454044995E-2   -3.290583784915073E1    -7.667856396567860E-2   -3.291266792380210E1    -4.148537741585318E1    -2.384793159764620E1
 8.932025000000000E7    -4.268322503051606E1    -2.550048531661685E1    -7.843356099901748E-2   -3.304560003577780E1    -7.723660121012214E-2   -3.305194844109310E1    -4.133635937995041E1    -2.460535462131662E1
 8.969512500000000E7    -4.264045342196159E1    -2.586167539510260E1    -7.931836903162981E-2   -3.318508253468776E1    -7.682277222882863E-2   -3.319068092779570E1    -4.133948285305367E1    -2.477658237732519E1
 9.007000000000000E7    -4.265481929788517E1    -2.554243601786776E1    -7.912386679267523E-2   -3.332279710389500E1    -7.803591077780993E-2   -3.332951340701440E1    -4.120475046886803E1    -2.604101209036547E1
 9.044487500000000E7    -4.263723859511535E1    -2.617146541083919E1    -7.864037046524287E-2   -3.346351891736956E1    -7.829320946141123E-2   -3.346705469399593E1    -4.119539638504293E1    -2.629111772335228E1
 9.081975000000000E7    -4.275188143787198E1    -2.548516216312170E1    -7.885533672181919E-2   -3.360173830543793E1    -7.843512505344158E-2   -3.360534595623478E1    -4.125354317419240E1    -2.635450713984912E1
 9.119462500000000E7    -4.265153793261008E1    -2.641860236134808E1    -7.901252201253643E-2   -3.373953199181692E1    -7.749391488414957E-2   -3.374341830011677E1    -4.141724445790662E1    -2.568948546132583E1
 9.156950000000000E7    -4.266333110329935E1    -2.710055438586305E1    -7.878894647459264E-2   -3.387684139722847E1    -7.745517732890785E-2   -3.388307742213146E1    -4.139727541002999E1    -2.627308209598616E1
 9.194437500000000E7    -4.258406084917573E1    -2.690068339221736E1    -7.789208154063058E-2   -3.401430192395489E1    -7.734777457432171E-2   -3.401888993239515E1    -4.143372292700575E1    -2.642665875160343E1
 9.231925000000000E7    -4.259751480900506E1    -2.735276617440804E1    -7.800697884385135E-2   -3.415094264477622E1    -7.833198394853746E-2   -3.415675784325983E1    -4.137824747791876E1    -2.668791584790959E1
 9.269412500000000E7    -4.266007958353099E1    -2.786012087780771E1    -7.849054828107527E-2   -3.428765318389552E1    -7.832657719523894E-2   -3.429671704145895E1    -4.133991913415278E1    -2.707310411531984E1
 9.306900000000000E7    -4.261498804783159E1    -2.744074262498830E1    -7.931869825470546E-2   -3.442897865769074E1    -7.783088031377056E-2   -3.443463524839198E1    -4.142508321010219E1    -2.709178227599094E1
 9.344387500000000E7    -4.252156697385957E1    -2.707076480953513E1    -7.948604978978875E-2   -3.456688523779743E1    -7.783288617024503E-2   -3.457445557682686E1    -4.146019208830229E1    -2.791496844274502E1
 9.381875000000000E7    -4.258140592013103E1    -2.641094911854291E1    -7.933189648472420E-2   -3.470498319924695E1    -7.849290966202527E-2   -3.471262004730425E1    -4.134248037233276E1    -2.808267609588079E1
 9.419362500000000E7    -4.260790036668944E1    -2.691369338253120E1    -7.879004698631017E-2   -3.484612865274007E1    -7.817721953178061E-2   -3.485116384625771E1    -4.137408111301104E1    -2.811640212222148E1
 9.456850000000000E7    -4.276288759098034E1    -2.701136378183528E1    -7.865163836325353E-2   -3.498258489170033E1    -7.864630377613563E-2   -3.498800995894581E1    -4.140878576440649E1    -2.796924836211490E1
 9.494337500000000E7    -4.283066570224662E1    -2.764069710620373E1    -7.891175241648696E-2   -3.512067743385133E1    -7.764100582204814E-2   -3.512655013637166E1    -4.132461478943711E1    -2.835408940133635E1
 9.531825000000000E7    -4.274343397708239E1    -2.751287154089344E1    -7.903119442379446E-2   -3.526166720559557E1    -7.836961024820129E-2   -3.526526191192600E1    -4.123049273978216E1    -2.818244310081276E1
 9.569312500000000E7    -4.287217599367815E1    -2.830809661755958E1    -7.858319989934759E-2   -3.539708820105613E1    -7.794352221387497E-2   -3.540708727731974E1    -4.132906977034857E1    -2.872362514964721E1
 9.606800000000000E7    -4.279125536283576E1    -2.853313016759371E1    -7.985131881526164E-2   -3.553847434851939E1    -7.840935290889327E-2   -3.554267640438495E1    -4.131673378188660E1    -2.870425804524087E1
 9.644287500000000E7    -4.278029258798846E1    -2.837897116348549E1    -7.986065676369182E-2   -3.567303139709757E1    -7.893851428790108E-2   -3.568167588350103E1    -4.140703811175398E1    -2.894325542891846E1
 9.681775000000000E7    -4.265990641189675E1    -2.852299692091350E1    -7.909379723812077E-2   -3.581682372553285E1    -7.911192937190176E-2   -3.581756367209474E1    -4.126083310564027E1    -2.872599005393223E1
 9.719262500000000E7    -4.261656425559849E1    -2.884632358899511E1    -7.912219525700578E-2   -3.595304747634292E1    -7.848365671134330E-2   -3.596024371692928E1    -4.116047299735889E1    -2.960112365057283E1
 9.756750000000000E7    -4.275748193610742E1    -3.000749385348604E1    -7.905081787983864E-2   -3.609088429875686E1    -7.821579396957806E-2   -3.609528466380447E1    -4.132853642577893E1    -2.968741395673967E1
 9.794237500000000E7    -4.272694843408323E1    -3.002620465586760E1    -7.882687452613349E-2   -3.622997021700881E1    -7.792563138086034E-2   -3.623413558668478E1    -4.138935687857714E1    -3.001890360885387E1
 9.831725000000000E7    -4.268236470084972E1    -2.928367572212415E1    -8.026652708199289E-2   -3.637014363157679E1    -7.829628822664295E-2   -3.636976937999243E1    -4.120237130492968E1    -3.015026164826284E1
 9.869212500000000E7    -4.264283288682491E1    -3.053829451294989E1    -8.019747775604613E-2   -3.650657025564241E1    -7.881239154180286E-2   -3.650842303168944E1    -4.123154347368408E1    -3.048991649014354E1
 9.906700000000000E7    -4.264344874199764E1    -3.041509589801571E1    -7.935088322134731E-2   -3.664388023877085E1    -7.946000314650262E-2   -3.664265155989519E1    -4.116827372372064E1    -3.107863891816048E1
 9.944187500000000E7    -4.266245613745841E1    -2.956354656215440E1    -7.899227752324421E-2   -3.678328230824096E1    -7.909593959907617E-2   -3.678379398821066E1    -4.111351529560643E1    -3.157928471502516E1
 9.981675000000000E7    -4.267588290102546E1    -2.991650448511103E1    -7.972155399578224E-2   -3.692235948002192E1    -7.838915536903161E-2   -3.692202413585793E1    -4.123378768787920E1    -3.088761272796290E1
 1.001916250000000E8    -4.275749515049309E1    -2.960871915937267E1    -7.905937759835459E-2   -3.706106114794133E1    -7.840941913696407E-2   -3.705863852180798E1    -4.129870744962214E1    -3.067706748416745E1
 1.005665000000000E8    -4.283534767196647E1    -3.059091067447232E1    -7.993044562048524E-2   -3.719852412428936E1    -7.780111437273028E-2   -3.719992123169168E1    -4.116756975920950E1    -3.080443496387883E1
 1.009413750000000E8    -4.275425124976323E1    -3.164149770496287E1    -7.912795157368264E-2   -3.733394385533573E1    -7.903777816305559E-2   -3.733649552913096E1    -4.121487797528892E1    -3.071241484370945E1
 1.013162500000000E8    -4.282890617168398E1    -3.120965101688165E1    -7.813940774938383E-2   -3.747472329577908E1    -7.923070491587399E-2   -3.747325323588579E1    -4.122774048286878E1    -3.152679280041017E1
 1.016911250000000E8    -4.281994984152260E1    -3.155852939909901E1    -7.888765630382642E-2   -3.761350954744655E1    -7.870484240287859E-2   -3.761480362330081E1    -4.120877669377465E1    -3.207527390179542E1
 1.020660000000000E8    -4.274359655997966E1    -3.126750022877128E1    -7.943451829649258E-2   -3.774938471258705E1    -7.840320584449521E-2   -3.775026304648501E1    -4.124215015910040E1    -3.156644708604180E1
 1.024408750000000E8    -4.270025483260628E1    -3.161279167457383E1    -7.913067546808913E-2   -3.788886639317573E1    -7.926278681861088E-2   -3.788834539153977E1    -4.128213785880998E1    -3.226123883889616E1
 1.028157500000000E8    -4.278941610947474E1    -3.149076351802098E1    -7.986745434980333E-2   -3.802457841640869E1    -7.891088885355566E-2   -3.802504759114397E1    -4.111957487579498E1    -3.309769922229655E1
 1.031906250000000E8    -4.278875894086178E1    -3.162853951401136E1    -7.988133083629388E-2   -3.816064384364157E1    -7.883743814778227E-2   -3.816038868441105E1    -4.120425549126882E1    -3.246049553701472E1
 1.035655000000000E8    -4.271919121742166E1    -3.211387819001448E1    -7.905933777616227E-2   -3.830045080516608E1    -7.886219729451477E-2   -3.829915379538600E1    -4.130502460691206E1    -3.283013299641797E1
 1.039403750000000E8    -4.274470983615472E1    -3.116504394425516E1    -7.918228607793508E-2   -3.843531356385469E1    -7.811863537740320E-2   -3.843895625645686E1    -4.124616807571467E1    -3.329598158306007E1
 1.043152500000000E8    -4.272292635454760E1    -3.240211812167387E1    -7.963728067342685E-2   -3.857759541639141E1    -7.843253514597541E-2   -3.857874202345418E1    -4.120098374872321E1    -3.296441289802317E1
 1.046901250000000E8    -4.264276782903913E1    -3.280978191203196E1    -7.923551882554820E-2   -3.871865106949306E1    -7.932942989143306E-2   -3.871599394898011E1    -4.128898124636909E1    -3.361914380778998E1
 1.050650000000000E8    -4.265758698204640E1    -3.252028654483012E1    -7.946858742638596E-2   -3.885864921661929E1    -7.918757563760001E-2   -3.885432565003958E1    -4.118874843342580E1    -3.351676979864641E1
 1.054398750000000E8    -4.260448402361871E1    -3.417687301620008E1    -8.070913477133798E-2   -3.899263169896196E1    -7.816811426196917E-2   -3.899394674695367E1    -4.113925051864703E1    -3.309976388499959E1
 1.058147500000000E8    -4.255394358356480E1    -3.388709287906253E1    -7.947815617146506E-2   -3.913196870015862E1    -7.888826205222667E-2   -3.912891193829121E1    -4.113453643390464E1    -3.388735017596821E1
 1.061896250000000E8    -4.265104184922237E1    -3.341557162398274E1    -7.919338427341148E-2   -3.926689036200856E1    -7.974233968260393E-2   -3.926682831026370E1    -4.111554264870715E1    -3.515435467497424E1
 1.065645000000000E8    -4.264134806975039E1    -3.352443843557252E1    -7.968444611098245E-2   -3.940462512633007E1    -7.967677576193932E-2   -3.940331631033467E1    -4.126234054961639E1    -3.499651813608480E1
 1.069393750000000E8    -4.266935747597152E1    -3.441274999222550E1    -7.976173610856459E-2   -3.954458278383868E1    -7.896164565856566E-2   -3.954325149045009E1    -4.131177616293219E1    -3.549299837625286E1
 1.073142500000000E8    -4.279660018901084E1    -3.415399872781605E1    -7.984200238227505E-2   -3.968158188254536E1    -7.903348299845665E-2   -3.967951223402593E1    -4.125862148415275E1    -3.497280375258211E1
 1.076891250000000E8    -4.263756705797633E1    -3.463306940833591E1    -8.078944323932620E-2   -3.981814367695723E1    -7.925055551275839E-2   -3.981901350364076E1    -4.121353546891713E1    -3.506020965621744E1
 1.080640000000000E8    -4.267087847848486E1    -3.479743460269403E1    -8.062969404787196E-2   -3.995442894644810E1    -8.014877897855191E-2   -3.995682453279842E1    -4.098630579903851E1    -3.569076762323954E1
 1.084388750000000E8    -4.268958857794546E1    -3.419542717510133E1    -8.027438100507932E-2   -4.009241876842275E1    -8.042424925327850E-2   -4.009397709052966E1    -4.124058455544521E1    -3.612708117680882E1
 1.088137500000000E8    -4.265347615295028E1    -3.447830352055936E1    -8.135926485986117E-2   -4.023230839188739E1    -8.035268692532394E-2   -4.023084388771838E1    -4.132782495554723E1    -3.525729956100827E1
 1.091886250000000E8    -4.266057391552663E1    -3.429816884378955E1    -8.008958068575120E-2   -4.036679429051490E1    -8.036054555812841E-2   -4.036932618169517E1    -4.124195724881101E1    -3.588124676116891E1
 1.095635000000000E8    -4.252729957550911E1    -3.528310543259842E1    -8.095734207309384E-2   -4.050925211026472E1    -8.044689522089754E-2   -4.050805628166830E1    -4.118539654558595E1    -3.650275121563535E1
 1.099383750000000E8    -4.260159438620907E1    -3.430337031942508E1    -8.049753692688634E-2   -4.064567779405622E1    -8.018318594832424E-2   -4.064795725934619E1    -4.104449090702214E1    -3.720641009247551E1
 1.103132500000000E8    -4.264997507109072E1    -3.477550705776675E1    -8.071975524327964E-2   -4.078394028474221E1    -8.122349610234654E-2   -4.078183805739949E1    -4.113655961824332E1    -3.650272110751916E1
 1.106881250000000E8    -4.271474781787024E1    -3.593036870375861E1    -8.169827670704857E-2   -4.091758927383371E1    -8.042531669919403E-2   -4.092051030756569E1    -4.110749435004756E1    -3.742017632907866E1
 1.110630000000000E8    -4.276046530571207E1    -3.573447134203467E1    -8.139729894964955E-2   -4.105595585251766E1    -8.038134952515015E-2   -4.105968993284018E1    -4.105003368884506E1    -3.750336135684658E1
 1.114378750000000E8    -4.283071404540047E1    -3.606036002021724E1    -8.035414454343123E-2   -4.119322316017296E1    -8.061187333043518E-2   -4.119380982225174E1    -4.117567919900767E1    -3.761889058009175E1
 1.118127500000000E8    -4.272047393255198E1    -3.694053123261389E1    -8.046147171462072E-2   -4.133344087424148E1    -8.041633780837543E-2   -4.133297018514993E1    -4.107452067495309E1    -3.756166357340533E1
 1.121876250000000E8    -4.271506453871495E1    -3.639900396517507E1    -8.062303468796753E-2   -4.146886264696995E1    -8.006023721455993E-2   -4.146958926057769E1    -4.104214027949905E1    -3.802140545548022E1
 1.125625000000000E8    -4.265681805324886E1    -3.755483794778387E1    -8.155893498161937E-2   -4.160770648493823E1    -8.053995223715819E-2   -4.160738079425735E1    -4.108664125206463E1    -3.772945887302321E1
 1.129373750000000E8    -4.283582367762288E1    -3.720207192664030E1    -8.130989470494501E-2   -4.174463568742181E1    -8.141035467685633E-2   -4.174516143122555E1    -4.099864692087493E1    -3.844072338526955E1
 1.133122500000000E8    -4.264322443957524E1    -3.834056827264123E1    -8.087470438107203E-2   -4.188450703569579E1    -8.059588294858304E-2   -4.188364318514201E1    -4.110853367055431E1    -3.845782836140247E1
 1.136871250000000E8    -4.268501047739111E1    -3.835434819122522E1    -8.076611960517568E-2   -4.202327898680870E1    -8.090774800138591E-2   -4.202152018422677E1    -4.105254621148457E1    -3.873943398604903E1
 1.140620000000000E8    -4.272794592100748E1    -3.778013117558982E1    -8.155256721698156E-2   -4.216139403394583E1    -8.128995308388670E-2   -4.216189199651469E1    -4.112242458424254E1    -3.912608219047844E1
 1.144368750000000E8    -4.271632122413323E1    -3.828503355918796E1    -8.167671197029652E-2   -4.229998877119269E1    -8.159241883669568E-2   -4.229911667472122E1    -4.114106279583285E1    -3.929302676858975E1
 1.148117500000000E8    -4.272311291648297E1    -3.917894196637818E1    -8.226341791403594E-2   -4.243489571871405E1    -8.119788485294546E-2   -4.243832803230179E1    -4.121236951694379E1    -3.931661759570769E1
 1.151866250000000E8    -4.273751113164654E1    -3.891116124201628E1    -8.253342888654173E-2   -4.257480289633813E1    -8.130905454199587E-2   -4.257479563933262E1    -4.129675966355929E1    -3.994720457370291E1
 1.155615000000000E8    -4.280094779459593E1    -3.848433990403151E1    -8.196877480362420E-2   -4.271316286423099E1    -8.112715638516545E-2   -4.271316797277265E1    -4.102130860932431E1    -4.053521810938898E1
 1.159363750000000E8    -4.274182083145898E1    -3.893084126775090E1    -8.149142706415173E-2   -4.285074537478027E1    -8.116545186286571E-2   -4.285103068920534E1    -4.100896578810398E1    -3.956684250087959E1
 1.163112500000000E8    -4.277987411707038E1    -3.903153120050712E1    -8.211925116656719E-2   -4.298954086030825E1    -8.147412766720362E-2   -4.298882767709100E1    -4.106452544618261E1    -3.983484426656114E1
 1.166861250000000E8    -4.270047184037122E1    -3.953582639513655E1    -8.242600534370761E-2   -4.312551047588102E1    -8.240980272172965E-2   -4.312690264749023E1    -4.112904465303346E1    -4.065013116908170E1
 1.170610000000000E8    -4.257203963627641E1    -3.977451485846272E1    -8.257041151111387E-2   -4.326752979286784E1    -8.257478494335913E-2   -4.326277904649312E1    -4.114131885850721E1    -4.175513100052797E1
 1.174358750000000E8    -4.266082875163448E1    -3.999536074236898E1    -8.232188239797086E-2   -4.340129173315817E1    -8.320713213041243E-2   -4.340206374137462E1    -4.117661606780794E1    -4.135913572546860E1
 1.178107500000000E8    -4.251364050830239E1    -4.092132431498086E1    -8.322086970592751E-2   -4.353916777469058E1    -8.218974447139488E-2   -4.354357612580014E1    -4.120992602640687E1    -4.056261851921305E1
 1.181856250000000E8    -4.260485448722580E1    -4.046672894753184E1    -8.329667550962508E-2   -4.367802519310163E1    -8.193464943017746E-2   -4.367964856453364E1    -4.120658551456113E1    -4.080661565696860E1
 1.185605000000000E8    -4.267516467163757E1    -4.133621182441124E1    -8.261848994141205E-2   -4.381545549818011E1    -8.253304751326329E-2   -4.381648340541807E1    -4.101847330416113E1    -4.092229964138914E1
 1.189353750000000E8    -4.265102203665484E1    -4.060273706812806E1    -8.296672318884113E-2   -4.395301004103659E1    -8.261128270443001E-2   -4.395455831787353E1    -4.112693003213452E1    -4.180872348721903E1
 1.193102500000000E8    -4.270056026707118E1    -4.150685027098863E1    -8.250841600644335E-2   -4.409295720117885E1    -8.240148769895833E-2   -4.409316244911370E1    -4.127099176584942E1    -4.188057200777786E1
 1.196851250000000E8    -4.258973102724744E1    -4.238448804196554E1    -8.305090867125300E-2   -4.423114923780324E1    -8.284943580528378E-2   -4.423066345273052E1    -4.133025409568853E1    -4.244733398245174E1
 1.200600000000000E8    -4.273401958188003E1    -4.337798946364353E1    -8.338278745937623E-2   -4.436943528890153E1    -8.275066253659728E-2   -4.437373784971546E1    -4.129983478269889E1    -4.357824097100738E1
 1.204348750000000E8    -4.284359127847431E1    -4.236517952463359E1    -8.309524289248657E-2   -4.451050924108993E1    -8.253391975958882E-2   -4.451305641402068E1    -4.126196392655324E1    -4.296544509684324E1
 1.208097500000000E8    -4.272405382652850E1    -4.204892003174032E1    -8.305081034895948E-2   -4.464922734310457E1    -8.220987904650218E-2   -4.465311098028548E1    -4.130519892293303E1    -4.210211567091053E1
 1.211846250000000E8    -4.275103355298814E1    -4.183904270043261E1    -8.267634939083285E-2   -4.478710671211512E1    -8.199698828828277E-2   -4.478889969135069E1    -4.130541603288514E1    -4.225717534753225E1
 1.215595000000000E8    -4.274635412046878E1    -4.166261475233051E1    -8.233570041817391E-2   -4.492343622793646E1    -8.186975859467661E-2   -4.492874656025533E1    -4.126082638330439E1    -4.339398962370205E1
 1.219343750000000E8    -4.291375647176211E1    -4.139547068952594E1    -8.189749532399024E-2   -4.506293643930016E1    -8.194169803743455E-2   -4.506832760313912E1    -4.123050384532384E1    -4.385853604302288E1
 1.223092500000000E8    -4.275909148659689E1    -4.159502979344049E1    -8.244975551437006E-2   -4.520251232919330E1    -8.229976648888548E-2   -4.520602641235526E1    -4.128147173243205E1    -4.505519110495753E1
 1.226841250000000E8    -4.255564291719004E1    -4.229874177644961E1    -8.268546038385996E-2   -4.533683218195401E1    -8.277365211895692E-2   -4.534601370136433E1    -4.126944638613076E1    -4.378332057985288E1
 1.230590000000000E8    -4.270487512338107E1    -4.272069490845769E1    -8.395059298302733E-2   -4.547694451882788E1    -8.216314241694651E-2   -4.548403177564001E1    -4.117263432803129E1    -4.398089155227169E1
 1.234338750000000E8    -4.276383257120311E1    -4.330592279606952E1    -8.280328052359442E-2   -4.561019996738368E1    -8.297617681937375E-2   -4.561756402357435E1    -4.127484205473300E1    -4.422929293226876E1
 1.238087500000000E8    -4.266519165423831E1    -4.393688403694660E1    -8.301356192647319E-2   -4.575044320637213E1    -8.214485515807887E-2   -4.575613285531725E1    -4.133737747364244E1    -4.432806131563108E1
 1.241836250000000E8    -4.275839722511843E1    -4.362512788114559E1    -8.251277574334936E-2   -4.588934810846786E1    -8.261842791590186E-2   -4.589625657083374E1    -4.135917329735629E1    -4.537550116146362E1
 1.245585000000000E8    -4.289551493421424E1    -4.310739679957101E1    -8.339071220520701E-2   -4.602594127075660E1    -8.283227781804925E-2   -4.603377099058174E1    -4.135856320054995E1    -4.456173905201346E1
 1.249333750000000E8    -4.291578998141540E1    -4.369612275846143E1    -8.337365052251482E-2   -4.616694223444374E1    -8.327130863424861E-2   -4.617271838394870E1    -4.129501896189677E1    -4.463069916154911E1
 1.253082500000000E8    -4.286236084652274E1    -4.334426535108875E1    -8.376799547438202E-2   -4.630471382108489E1    -8.240925259722184E-2   -4.630897471947011E1    -4.122061005443813E1    -4.502253421333697E1
 1.256831250000000E8    -4.278974489065276E1    -4.325431659548389E1    -8.284712000361777E-2   -4.644014756079631E1    -8.256438939740164E-2   -4.644842953272662E1    -4.124911274765219E1    -4.614463449430863E1
 1.260580000000000E8    -4.276997811399163E1    -4.382771715458480E1    -8.255783872880647E-2   -4.658092404637651E1    -8.250788543326612E-2   -4.658357771341861E1    -4.133696451070176E1    -4.632117641194770E1
 1.264328750000000E8    -4.278182575567782E1    -4.447816495063877E1    -8.314747038623485E-2   -4.672068889608929E1    -8.328353512816905E-2   -4.672569073488506E1    -4.135711354175314E1    -4.719268568090703E1
 1.268077500000000E8    -4.277488845161237E1    -4.542924925682217E1    -8.409665250150312E-2   -4.686386031670440E1    -8.322686569338489E-2   -4.686615236013414E1    -4.111762212012494E1    -4.757344270677943E1
 1.271826250000000E8    -4.286274868314204E1    -4.508311413447953E1    -8.346843930455983E-2   -4.699930065065973E1    -8.317228662996641E-2   -4.700185984942314E1    -4.117064970591277E1    -4.777765299472703E1
 1.275575000000000E8    -4.286528790795905E1    -4.539473289353550E1    -8.387803918763391E-2   -4.713735941595972E1    -8.306109822827926E-2   -4.713984530398280E1    -4.119131644887900E1    -4.719746051530191E1
 1.279323750000000E8    -4.279082885843486E1    -4.509530071237666E1    -8.445018618329124E-2   -4.727205369518657E1    -8.316785296805917E-2   -4.727667440156541E1    -4.118616325309031E1    -4.709508568374257E1
 1.283072500000000E8    -4.274004307995236E1    -4.561748394308620E1    -8.498464535511788E-2   -4.741044544993478E1    -8.367853868723013E-2   -4.741421392356517E1    -4.125700710596044E1    -4.736252323056810E1
 1.286821250000000E8    -4.266557837061044E1    -4.591231505990250E1    -8.445565290179848E-2   -4.754721418050459E1    -8.429702689275986E-2   -4.755391310660477E1    -4.130442099870339E1    -4.843857973524099E1
 1.290570000000000E8    -4.268671742019293E1    -4.560754889115714E1    -8.464956577499316E-2   -4.768455735193174E1    -8.423863902110180E-2   -4.769037908145796E1    -4.124349990431008E1    -4.915033203659056E1
 1.294318750000000E8    -4.284930724811674E1    -4.629396734143975E1    -8.437244346010495E-2   -4.782255727226374E1    -8.427471617577451E-2   -4.782869551410551E1    -4.108262637135333E1    -4.856304025344338E1
 1.298067500000000E8    -4.281736182520107E1    -4.657015288812212E1    -8.441489129963090E-2   -4.796323524939061E1    -8.346346013125706E-2   -4.796555841186680E1    -4.130320321558728E1    -4.849982612397572E1
 1.301816250000000E8    -4.289340865052402E1    -4.731990527375480E1    -8.470533144394969E-2   -4.810013373525251E1    -8.474952863042577E-2   -4.809881170132825E1    -4.137411855805904E1    -4.778019882417395E1
 1.305565000000000E8    -4.280597784063558E1    -4.677702343286504E1    -8.493972774970805E-2   -4.823597683831646E1    -8.445702913069315E-2   -4.824200167547896E1    -4.136392729829474E1    -4.864912271404577E1
 1.309313750000000E8    -4.268212088605743E1    -4.776595510978152E1    -8.444339438608353E-2   -4.837775978873406E1    -8.347085583040954E-2   -4.837810371725544E1    -4.127492934077806E1    -4.886297543439392E1
 1.313062500000000E8    -4.281282463573493E1    -4.763952115343683E1    -8.442431520375103E-2   -4.851691399564634E1    -8.303232098276839E-2   -4.851734178452477E1    -4.127097545146417E1    -4.938208953905063E1
 1.316811250000000E8    -4.261645851651528E1    -4.764024848613720E1    -8.380500806874232E-2   -4.865187892433092E1    -8.332086279678930E-2   -4.865749479889286E1    -4.128725651111678E1    -4.896019113582105E1
 1.320560000000000E8    -4.253836005555307E1    -4.735097863566396E1    -8.501077773247136E-2   -4.879229376196717E1    -8.323336484333715E-2   -4.879693473261159E1    -4.131066303901453E1    -4.842470270081428E1
 1.324308750000000E8    -4.253005988500370E1    -4.737407785238643E1    -8.415356649665702E-2   -4.893059384400262E1    -8.522272586831760E-2   -4.893089676305435E1    -4.121937705602935E1    -5.006326004175492E1
 1.328057500000000E8    -4.259138002354014E1    -4.786950314130928E1    -8.495631077534432E-2   -4.906724947950618E1    -8.424189896461798E-2   -4.907137597836113E1    -4.118657379866477E1    -5.117093040866624E1
 1.331806250000000E8    -4.267405183247762E1    -4.785889957863971E1    -8.467415914185858E-2   -4.920655933706453E1    -8.478120205448449E-2   -4.920872307115694E1    -4.114252797459827E1    -5.061132022022306E1
 1.335555000000000E8    -4.261708134069211E1    -4.872749862693960E1    -8.460872517060675E-2   -4.934507842777706E1    -8.473888275470631E-2   -4.934658177532338E1    -4.123573348810054E1    -5.111414366072594E1
 1.339303750000000E8    -4.259079473189200E1    -4.911689689223228E1    -8.520662487985435E-2   -4.948517589478915E1    -8.482036043188448E-2   -4.948549454914837E1    -4.116092801842545E1    -5.075166316079031E1
 1.343052500000000E8    -4.269406043395760E1    -4.919583390809137E1    -8.509366735377459E-2   -4.961905030283877E1    -8.454969048534140E-2   -4.962540549716024E1    -4.119971590284553E1    -5.112219475035266E1
 1.346801250000000E8    -4.266471041480906E1    -5.017448236964240E1    -8.462138919226977E-2   -4.975987388769827E1    -8.466980320475220E-2   -4.976501524991941E1    -4.117022936816862E1    -5.177782774727159E1
 1.350550000000000E8    -4.278139293792123E1    -5.034809832263021E1    -8.569308679776341E-2   -4.990048723592029E1    -8.447479253079207E-2   -4.990237342608251E1    -4.111662492148294E1    -5.201581982520224E1
 1.354298750000000E8    -4.278904974914997E1    -5.033941080659848E1    -8.535228139976370E-2   -5.003589442356879E1    -8.413418771837314E-2   -5.004256702651427E1    -4.116550076236194E1    -5.168246815215753E1
 1.358047500000000E8    -4.277271825162316E1    -5.029016177720606E1    -8.476678133841802E-2   -5.017579622009128E1    -8.443352792304434E-2   -5.017773011916738E1    -4.125121859820440E1    -5.223612489353849E1
 1.361796250000000E8    -4.272321815577826E1    -5.120397434676996E1    -8.582327981984313E-2   -5.031726911633526E1    -8.467144582865205E-2   -5.031458739204436E1    -4.124855661549921E1    -5.190379494764407E1
 1.365545000000000E8    -4.280411076878731E1    -5.033473876462274E1    -8.589331100220859E-2   -5.045332252533992E1    -8.473798822543462E-2   -5.045182357481219E1    -4.127252558345557E1    -5.237668682381123E1
 1.369293750000000E8    -4.276950566472738E1    -5.038268008324658E1    -8.574766320674151E-2   -5.059009758252221E1    -8.584483487907155E-2   -5.058919712449239E1    -4.119941105630006E1    -5.253570410147817E1
 1.373042500000000E8    -4.274760591022214E1    -5.118240013712235E1    -8.610547075377484E-2   -5.072527441972687E1    -8.614139833102027E-2   -5.073030525262354E1    -4.114802873823151E1    -5.348192750394914E1
 1.376791250000000E8    -4.285180577195768E1    -5.166044423821140E1    -8.635769423608934E-2   -5.086178256556176E1    -8.549693128975870E-2   -5.086742706717983E1    -4.119488809114787E1    -5.459195695791528E1
 1.380540000000000E8    -4.270685058163799E1    -5.236316585511657E1    -8.609218681635443E-2   -5.100214027382577E1    -8.570186133701072E-2   -5.100512006631099E1    -4.121387356407535E1    -5.469806802646666E1
 1.384288750000000E8    -4.281949568690851E1    -5.191433791880971E1    -8.603363992308594E-2   -5.113821297789635E1    -8.558023191347573E-2   -5.114236428446856E1    -4.133038280568962E1    -5.543401774380958E1
 1.388037500000000E8    -4.270130588959761E1    -5.261105678101499E1    -8.613081094827976E-2   -5.128127914465927E1    -8.515312044334433E-2   -5.128185576705196E1    -4.122636959896109E1    -5.535219270520872E1
 1.391786250000000E8    -4.285393818469473E1    -5.250518017640432E1    -8.588574157284706E-2   -5.141750133025253E1    -8.553361005332159E-2   -5.141808541151207E1    -4.131721366225767E1    -5.466271317424869E1
 1.395535000000000E8    -4.280680005676442E1    -5.272762379234260E1    -8.587756061629825E-2   -5.155455245778878E1    -8.561143220672374E-2   -5.155897377149854E1    -4.120728328717114E1    -5.471235631975000E1
 1.399283750000000E8    -4.281267200550093E1    -5.373569696938718E1    -8.614464876495845E-2   -5.169558235203968E1    -8.542878164316395E-2   -5.169818350944971E1    -4.121345327366952E1    -5.489001894880596E1
 1.403032500000000E8    -4.272937326293658E1    -5.442190106252120E1    -8.629006052102263E-2   -5.183295011732515E1    -8.655725179946419E-2   -5.183484370258690E1    -4.116085848244947E1    -5.579243126549112E1
 1.406781250000000E8    -4.262023975734505E1    -5.348896266310523E1    -8.600902097738819E-2   -5.196987012264170E1    -8.691687406681718E-2   -5.197066814683950E1    -4.125987090073561E1    -5.627250604574922E1
 1.410530000000000E8    -4.278451951849103E1    -5.407063765424339E1    -8.670484620502616E-2   -5.210811026579071E1    -8.680048907045265E-2   -5.210945558641836E1    -4.130617772231985E1    -5.683869463772474E1
 1.414278750000000E8    -4.282794932732727E1    -5.425132295200319E1    -8.718092089990485E-2   -5.224587040261842E1    -8.669686118316125E-2   -5.225086797439114E1    -4.116135685714113E1    -5.712318890711817E1
 1.418027500000000E8    -4.279824768213395E1    -5.387629774210970E1    -8.679754056081097E-2   -5.238116846967215E1    -8.715897786835589E-2   -5.238594565249218E1    -4.112353220563294E1    -5.739539586712934E1
 1.421776250000000E8    -4.272335511499062E1    -5.475081314617765E1    -8.785329266965730E-2   -5.251612200083390E1    -8.689982383663755E-2   -5.252380658820323E1    -4.123386325729170E1    -5.652357848092861E1
 1.425525000000000E8    -4.269225470487994E1    -5.507566216080945E1    -8.778572951955806E-2   -5.265805761788074E1    -8.691789857452140E-2   -5.266237262839773E1    -4.110841176055984E1    -5.687391805509510E1
 1.429273750000000E8    -4.251667589584294E1    -5.557046995411319E1    -8.758103205564376E-2   -5.279874886747910E1    -8.642485663938573E-2   -5.279963552935205E1    -4.121473394085523E1    -5.727588182925629E1
 1.433022500000000E8    -4.269254887162796E1    -5.580826106824459E1    -8.721280704618438E-2   -5.293788602838389E1    -8.712203170530650E-2   -5.293866224889307E1    -4.105694209520110E1    -5.743890411776891E1
 1.436771250000000E8    -4.263116413954571E1    -5.600549402970777E1    -8.721820664006216E-2   -5.307162791935322E1    -8.710362247447223E-2   -5.307564299931388E1    -4.118763188157465E1    -5.888160158030647E1
 1.440520000000000E8    -4.271110014625815E1    -5.549473152165329E1    -8.679931719358960E-2   -5.320832979628692E1    -8.749778576670898E-2   -5.321314006305756E1    -4.136546690365297E1    -5.850580519139853E1
 1.444268750000000E8    -4.262755850438253E1    -5.666196246216605E1    -8.765574903551490E-2   -5.334855421115515E1    -8.780956265815812E-2   -5.334894283286372E1    -4.122876091819958E1    -5.850437160149581E1
 1.448017500000000E8    -4.267624908820267E1    -5.636772115061510E1    -8.863216408228694E-2   -5.348807296725946E1    -8.729930580270760E-2   -5.348942564225651E1    -4.105064644202690E1    -5.854558085484111E1
 1.451766250000000E8    -4.266646899211680E1    -5.678807320435725E1    -8.855012085955385E-2   -5.362542736038277E1    -8.742496895671351E-2   -5.362738514982254E1    -4.104733638623264E1    -5.910549513645153E1
 1.455515000000000E8    -4.271633862124315E1    -5.703786644459511E1    -8.901519175294949E-2   -5.376563038608402E1    -8.836281743608404E-2   -5.376769983168945E1    -4.116196198857678E1    -5.915290030120783E1
 1.459263750000000E8    -4.272554093430819E1    -5.735831950710358E1    -8.873805324229066E-2   -5.390233244917380E1    -8.837838491573791E-2   -5.390022626440584E1    -4.131093945151946E1    -5.968237239272703E1
 1.463012500000000E8    -4.275854755110419E1    -5.678140016806967E1    -8.810477345984249E-2   -5.403988740341070E1    -8.799596360981361E-2   -5.404282566576082E1    -4.112263830456588E1    -6.062254436114425E1
 1.466761250000000E8    -4.271982409506408E1    -5.792451291688828E1    -8.769569802648419E-2   -5.418040745390750E1    -8.848670359355056E-2   -5.417839186431475E1    -4.107385476412268E1    -6.079201457508135E1
 1.470510000000000E8    -4.257701514333719E1    -5.773494855083003E1    -8.847207124943132E-2   -5.431314371944790E1    -8.777588346508605E-2   -5.431813575279324E1    -4.102319177098419E1    -6.153757202496894E1
 1.474258750000000E8    -4.260637454126343E1    -5.772457747903405E1    -8.836033019982981E-2   -5.445365643450486E1    -8.702753757700203E-2   -5.445727519370364E1    -4.118916673734790E1    -6.166476497953916E1
 1.478007500000000E8    -4.276724750527709E1    -5.752865101121976E1    -8.815327924554743E-2   -5.459014402400131E1    -8.738057709490157E-2   -5.459509153250534E1    -4.134861414577064E1    -6.068056847605938E1
 1.481756250000000E8    -4.266750192963500E1    -5.723374651745758E1    -8.781268482551728E-2   -5.472849840989984E1    -8.816430526880691E-2   -5.473019782658592E1    -4.120725486500699E1    -6.170801942615454E1
 1.485505000000000E8    -4.258255439578445E1    -5.882403187576174E1    -8.888811849186370E-2   -5.486822628861474E1    -8.864717310254908E-2   -5.487241670917572E1    -4.121368411891269E1    -6.168680904689658E1
 1.489253750000000E8    -4.250024754179628E1    -5.931132212986910E1    -8.921357836119095E-2   -5.500768760139139E1    -8.866260645137702E-2   -5.500696480995840E1    -4.127378168420955E1    -6.185379740232119E1
 1.493002500000000E8    -4.246590530555798E1    -6.037719532105175E1    -8.875082054362521E-2   -5.514653123345327E1    -8.865929611356549E-2   -5.514816278749500E1    -4.120311881097246E1    -6.234628884678601E1
 1.496751250000000E8    -4.252901529459420E1    -6.050095930359096E1    -8.894432415720162E-2   -5.528643303725516E1    -8.919129551406910E-2   -5.528550217988457E1    -4.118734167431951E1    -6.264107737592663E1
 1.500500000000000E8    -4.248596577698434E1    -6.107213348042468E1    -8.984434676697156E-2   -5.542552412832291E1    -8.869692221147715E-2   -5.542694815356302E1    -4.113564499231643E1    -6.331580760122203E1
 1.504248750000000E8    -4.253804144389026E1    -6.026372914731472E1    -8.914159753637460E-2   -5.555867617572265E1    -8.946889321700312E-2   -5.556246892517350E1    -4.127761790155913E1    -6.353821357123327E1
 1.507997500000000E8    -4.253385719671658E1    -6.026209582158339E1    -8.903604560732661E-2   -5.569704295445017E1    -8.901062044994350E-2   -5.570136456283355E1    -4.125379601041310E1    -6.427633672312552E1
 1.511746250000000E8    -4.254185416378156E1    -5.997519277941212E1    -8.890434538283279E-2   -5.583797928800313E1    -8.946652229253146E-2   -5.583641253689738E1    -4.118660069785366E1    -6.481941560408339E1
 1.515495000000000E8    -4.243817490333218E1    -6.095972598041058E1    -8.935037503256715E-2   -5.597298282994115E1    -8.952900765643175E-2   -5.597696005699135E1    -4.116840434063191E1    -6.494932923211681E1
 1.519243750000000E8    -4.257642927967133E1    -6.231222066944024E1    -9.020334244719247E-2   -5.611139186882618E1    -8.975862659586831E-2   -5.611150109020986E1    -4.110485437113189E1    -6.518951287523556E1
 1.522992500000000E8    -4.257366435545723E1    -6.232546792285790E1    -9.046077983959372E-2   -5.624761313284630E1    -8.905452983970014E-2   -5.625101407176492E1    -4.105142520991710E1    -6.583393520136120E1
 1.526741250000000E8    -4.258769787631074E1    -6.167881238357575E1    -9.122594404589604E-2   -5.639006094389573E1    -8.930501776256952E-2   -5.639185580929670E1    -4.107544654828825E1    -6.469683830143555E1
 1.530490000000000E8    -4.247688379219512E1    -6.210839613870159E1    -9.023179763894322E-2   -5.652530065299325E1    -8.969641163946118E-2   -5.653155697738250E1    -4.110804372265852E1    -6.430395549845453E1
 1.534238750000000E8    -4.249718142778058E1    -6.301177248142492E1    -8.993148022220877E-2   -5.666274917801192E1    -8.988338704378838E-2   -5.666592742487887E1    -4.122532450162513E1    -6.464295004274919E1
 1.537987500000000E8    -4.259890446644736E1    -6.258166323913569E1    -8.958281729238105E-2   -5.679994939006805E1    -8.968840593354799E-2   -5.680022695039882E1    -4.111640369118058E1    -6.512562651583467E1
 1.541736250000000E8    -4.263014406978289E1    -6.253976364872629E1    -9.056389428260037E-2   -5.693670493647830E1    -8.935403554106271E-2   -5.694016999900988E1    -4.102794180410563E1    -6.587328847326590E1
 1.545485000000000E8    -4.253675347234764E1    -6.264924754667016E1    -8.973146067865556E-2   -5.707649509550858E1    -8.970323748925653E-2   -5.707790650864740E1    -4.103307965252550E1    -6.559761957775510E1
 1.549233750000000E8    -4.263488645475208E1    -6.285153807508667E1    -9.090354603069961E-2   -5.721695033599040E1    -9.012683986936335E-2   -5.721739471305747E1    -4.116071788781159E1    -6.579179381155890E1
 1.552982500000000E8    -4.259577695823502E1    -6.381388673822936E1    -9.047324333548701E-2   -5.735618176102073E1    -9.108077695895581E-2   -5.735290012332785E1    -4.120227317109327E1    -6.613272659680618E1
 1.556731250000000E8    -4.261240828916434E1    -6.417650948187264E1    -9.083514455240373E-2   -5.749294827452373E1    -9.098185597392129E-2   -5.749610968366920E1    -4.120024782907976E1    -6.700099071752345E1
 1.560480000000000E8    -4.256028027048325E1    -6.359432883213884E1    -8.961542931151165E-2   -5.763060185821087E1    -9.074566008633436E-2   -5.763114839049501E1    -4.115739143252196E1    -6.762710895878735E1
 1.564228750000000E8    -4.258545489442015E1    -6.390361200197641E1    -9.079050294222361E-2   -5.776570088954722E1    -9.013104934828173E-2   -5.776947650179565E1    -4.118182597394657E1    -6.767760090824916E1
 1.567977500000000E8    -4.261331765163118E1    -6.452744991603586E1    -9.159794477963389E-2   -5.790550494911525E1    -9.040947839695876E-2   -5.790762478459499E1    -4.115708253296160E1    -6.717915665131341E1
 1.571726250000000E8    -4.248168271871718E1    -6.490509910805034E1    -9.129446175387643E-2   -5.804475535160179E1    -9.040808644967679E-2   -5.804564928200845E1    -4.108364319712714E1    -6.783479307534648E1
 1.575475000000000E8    -4.245856469079976E1    -6.455244863078120E1    -9.099927712575565E-2   -5.818193487606420E1    -9.088324620750661E-2   -5.818232190400182E1    -4.108183332920778E1    -6.871291871210529E1
 1.579223750000000E8    -4.255417997222344E1    -6.627142067750069E1    -9.097807146164763E-2   -5.831806379808850E1    -9.109498951414147E-2   -5.832155110062154E1    -4.103286611966495E1    -6.905180974262458E1
 1.582972500000000E8    -4.259598258235913E1    -6.601664274591631E1    -9.070558601775540E-2   -5.845517424448948E1    -9.113234229994617E-2   -5.845802835097567E1    -4.101722894398573E1    -7.000467147335009E1
 1.586721250000000E8    -4.268402242435634E1    -6.567182473803642E1    -9.144076919612885E-2   -5.859776303504573E1    -9.104110406901658E-2   -5.859746405837240E1    -4.103054362991550E1    -6.943368950503988E1
 1.590470000000000E8    -4.251574433437572E1    -6.590948878704064E1    -9.187498373324501E-2   -5.873393215465186E1    -9.201780027630689E-2   -5.873343691571996E1    -4.104240461042242E1    -7.022010009048128E1
 1.594218750000000E8    -4.253667350620560E1    -6.591742912404597E1    -9.210422963264063E-2   -5.887174778098947E1    -9.258672056642664E-2   -5.887151621115708E1    -4.109135638748972E1    -6.994263788737288E1
 1.597967500000000E8    -4.258435136058566E1    -6.655935372106430E1    -9.217063672791652E-2   -5.901009056705384E1    -9.123616581055832E-2   -5.901489045465364E1    -4.107170095447145E1    -7.007961772060807E1
 1.601716250000000E8    -4.267044446200894E1    -6.670180743366326E1    -9.266629328648793E-2   -5.915002367953583E1    -9.070609965588053E-2   -5.914998385606651E1    -4.114841864046282E1    -6.995352849756202E1
 1.605465000000000E8    -4.261613461386791E1    -6.732352352778537E1    -9.232520044588494E-2   -5.928941303530453E1    -9.124710988921926E-2   -5.928773302640726E1    -4.113157273117069E1    -7.029877754677516E1
 1.609213750000000E8    -4.265724523032190E1    -6.846816634009434E1    -9.184494032083955E-2   -5.942733318606905E1    -9.131614047894088E-2   -5.942543617706028E1    -4.117919403402574E1    -7.031441074143463E1
 1.612962500000000E8    -4.263722043855277E1    -6.866274684247811E1    -9.244706716688100E-2   -5.956365346032579E1    -9.142135883209926E-2   -5.956591355519187E1    -4.110745311038593E1    -7.136225868685067E1
 1.616711250000000E8    -4.277962901612447E1    -6.799386577439142E1    -9.221716498924441E-2   -5.970264070817492E1    -9.237325275306144E-2   -5.970180219366292E1    -4.116685205823337E1    -7.159862443266715E1
 1.620460000000000E8    -4.275863241753207E1    -6.810034484206368E1    -9.259643184659459E-2   -5.983719642480730E1    -9.132923168170698E-2   -5.984037613682565E1    -4.103295482308624E1    -7.206417660294821E1
 1.624208750000000E8    -4.259511983881228E1    -6.886860661503238E1    -9.221772541337740E-2   -5.997709408189095E1    -9.164519212156519E-2   -5.997854919637056E1    -4.102821590926435E1    -7.154120971500272E1
 1.627957500000000E8    -4.257855937060619E1    -6.832573414829461E1    -9.273042241967500E-2   -6.011297365116253E1    -9.218080077813032E-2   -6.011592808348365E1    -4.105901394661988E1    -7.152185567467957E1
 1.631706250000000E8    -4.257583940415319E1    -6.871062194678262E1    -9.271359350780362E-2   -6.025402792507411E1    -9.318940235042314E-2   -6.025264864341376E1    -4.101414236206345E1    -7.202631563750958E1
 1.635455000000000E8    -4.269955117270147E1    -6.882215762463510E1    -9.279382564038932E-2   -6.039198267250344E1    -9.204156618759356E-2   -6.039469982867000E1    -4.107459664075238E1    -7.191810205602637E1
 1.639203750000000E8    -4.269968821622824E1    -6.875504673794863E1    -9.285198776540463E-2   -6.053183722063108E1    -9.280463334150646E-2   -6.053295309570499E1    -4.108312050126929E1    -7.260028900238423E1
 1.642952500000000E8    -4.272740628358449E1    -6.927892472386702E1    -9.354320253186584E-2   -6.066711080481892E1    -9.258452980018991E-2   -6.067011540329401E1    -4.110815664409213E1    -7.313030756726529E1
 1.646701250000000E8    -4.269344156725762E1    -6.868255872767649E1    -9.331338653939120E-2   -6.080658268923808E1    -9.275631492654349E-2   -6.080929595900318E1    -4.111322546767689E1    -7.272566799438283E1
 1.650450000000000E8    -4.266499239085191E1    -6.926283370298640E1    -9.272947254822911E-2   -6.094616857273725E1    -9.263167070323788E-2   -6.094527578045600E1    -4.103984724544978E1    -7.294153822824394E1
 1.654198750000000E8    -4.254622467289917E1    -6.972949847565475E1    -9.219278145449566E-2   -6.108162296893342E1    -9.273502308843605E-2   -6.108415009937366E1    -4.110611948259268E1    -7.363858579220684E1
 1.657947500000000E8    -4.258230780346518E1    -7.064490495801660E1    -9.291545569834964E-2   -6.122056228586312E1    -9.343244242152837E-2   -6.121927592898102E1    -4.087424445943195E1    -7.404477825048480E1
 1.661696250000000E8    -4.255219834554463E1    -7.127832195476026E1    -9.267362602189963E-2   -6.135826997375978E1    -9.328081976406276E-2   -6.135795138789386E1    -4.087246095468366E1    -7.402000019126736E1
 1.665445000000000E8    -4.241940882313915E1    -7.217235055593740E1    -9.387368291294960E-2   -6.149354446151977E1    -9.358642543101951E-2   -6.149550973954580E1    -4.089307502715005E1    -7.483796068701864E1
 1.669193750000000E8    -4.260141585686458E1    -7.187527225512177E1    -9.427306393006603E-2   -6.162872319376424E1    -9.328220519270933E-2   -6.163639287824495E1    -4.085884418808356E1    -7.527204605392436E1
 1.672942500000000E8    -4.252940799498271E1    -7.126621362843404E1    -9.402666349874057E-2   -6.177018022680826E1    -9.295558160607306E-2   -6.177458251980399E1    -4.092223013776606E1    -7.551322729051607E1
 1.676691250000000E8    -4.263216747173193E1    -7.158045770810718E1    -9.323837522277882E-2   -6.190901732295054E1    -9.307964931018706E-2   -6.191138317687594E1    -4.108213908779503E1    -7.506664721404638E1
 1.680440000000000E8    -4.263965032627075E1    -7.197888006737601E1    -9.346902569059759E-2   -6.204314301252715E1    -9.263985575010965E-2   -6.204728877217816E1    -4.092532159410933E1    -7.540485951235297E1
 1.684188750000000E8    -4.267500101143666E1    -7.202139531878991E1    -9.274846426982564E-2   -6.218439052504906E1    -9.353216662292593E-2   -6.218674957948745E1    -4.100171088049105E1    -7.585289264291913E1
 1.687937500000000E8    -4.256415011062496E1    -7.216740622634232E1    -9.287081520208963E-2   -6.232015795689130E1    -9.435475148560059E-2   -6.232475748537511E1    -4.090418141790741E1    -7.621519944138981E1
 1.691686250000000E8    -4.261947782921709E1    -7.260322304555604E1    -9.314699562411967E-2   -6.246195480874143E1    -9.410175846961144E-2   -6.246286577434180E1    -4.093659009644161E1    -7.610017702501858E1
 1.695435000000000E8    -4.260639789244599E1    -7.330072540832191E1    -9.453212500810965E-2   -6.259935311704955E1    -9.295224720575103E-2   -6.260514090677435E1    -4.104357219310239E1    -7.604161621695589E1
 1.699183750000000E8    -4.271181307086479E1    -7.333222920613045E1    -9.431589117961046E-2   -6.274211317642748E1    -9.293667415888678E-2   -6.274265878113935E1    -4.091706674938699E1    -7.684106647007552E1
 1.702932500000000E8    -4.262943012066000E1    -7.377456521916908E1    -9.435395153978191E-2   -6.287764029634364E1    -9.363478860559980E-2   -6.288128720154836E1    -4.090343747936925E1    -7.695664414632866E1
 1.706681250000000E8    -4.264817494723070E1    -7.439307834251908E1    -9.431501602062170E-2   -6.301552728963202E1    -9.437951059271515E-2   -6.301830919140309E1    -4.085700631357888E1    -7.727984365156784E1
 1.710430000000000E8    -4.271363379983063E1    -7.400150309506608E1    -9.423892610215102E-2   -6.315303635999350E1    -9.369244627101778E-2   -6.316016714756877E1    -4.097566898501193E1    -7.739144409775074E1
 1.714178750000000E8    -4.271184894770501E1    -7.484299194781728E1    -9.303761197166784E-2   -6.329171353953867E1    -9.378173300118363E-2   -6.329540122811692E1    -4.092044497251411E1    -7.797240219164610E1
 1.717927500000000E8    -4.269148005413277E1    -7.478353381231182E1    -9.415136353692095E-2   -6.342881269841441E1    -9.336822945854947E-2   -6.343133270194395E1    -4.097417583483494E1    -7.842949671940697E1
 1.721676250000000E8    -4.264917865529409E1    -7.485409496666767E1    -9.427822332700433E-2   -6.356704268112863E1    -9.446977202848614E-2   -6.356996083543727E1    -4.094677398904047E1    -7.935627159878024E1
 1.725425000000000E8    -4.267699261092974E1    -7.498776000212571E1    -9.429821606715991E-2   -6.370685869196107E1    -9.479903756690966E-2   -6.370812218210777E1    -4.098862532215065E1    -7.871136865889939E1
 1.729173750000000E8    -4.262086552045815E1    -7.498757001972747E1    -9.480007797121866E-2   -6.384575090347229E1    -9.485029018164146E-2   -6.384397068480432E1    -4.077303265288252E1    -7.817682950430111E1
 1.732922500000000E8    -4.258387632214864E1    -7.562714868999348E1    -9.566187094674632E-2   -6.397928516884481E1    -9.497371657667886E-2   -6.398189142662279E1    -4.080824679704080E1    -7.942127972180297E1
 1.736671250000000E8    -4.271144865186476E1    -7.550674236872666E1    -9.383068844899646E-2   -6.412144618093821E1    -9.496933678641639E-2   -6.411801015137215E1    -4.097332609098495E1    -7.961668541702420E1
 1.740420000000000E8    -4.265391643429656E1    -7.697308960535678E1    -9.434660218110330E-2   -6.425402128638680E1    -9.554509398046540E-2   -6.425459473563510E1    -4.086435814281032E1    -8.046660741719725E1
 1.744168750000000E8    -4.261949215499801E1    -7.563163218095255E1    -9.550984966542998E-2   -6.439361606381485E1    -9.392889567834246E-2   -6.439421490945638E1    -4.080509606099685E1    -8.078419212876159E1
 1.747917500000000E8    -4.250382686964083E1    -7.677040298719595E1    -9.515180584277297E-2   -6.452859162317186E1    -9.428659747341858E-2   -6.453336555950922E1    -4.084325792138225E1    -8.130300484087022E1
 1.751666250000000E8    -4.255390652497553E1    -7.664500061069469E1    -9.490769976120832E-2   -6.466812947119578E1    -9.501758184568755E-2   -6.466913206315932E1    -4.071948444761239E1    -8.138281900360278E1
 1.755415000000000E8    -4.262407939027512E1    -7.738933130740219E1    -9.487269296875006E-2   -6.480926201772317E1    -9.559866274313061E-2   -6.480793952053878E1    -4.084208746618374E1    -8.152657340515648E1
 1.759163750000000E8    -4.270096317792415E1    -7.801385093089500E1    -9.516844042226745E-2   -6.494851071602632E1    -9.573466555250917E-2   -6.494734998480001E1    -4.103941125181912E1    -8.137459625934753E1
 1.762912500000000E8    -4.270385950756088E1    -7.805909417467768E1    -9.573876604976536E-2   -6.508466003485067E1    -9.471969297483492E-2   -6.508841993824038E1    -4.088295533321811E1    -8.181103582450235E1
 1.766661250000000E8    -4.273555383616692E1    -7.833159648004445E1    -9.618314451513388E-2   -6.522013652725184E1    -9.412810868161993E-2   -6.522476390370754E1    -4.084300138476743E1    -8.246706003950733E1
 1.770410000000000E8    -4.278269560585198E1    -7.900493175117934E1    -9.520447457098369E-2   -6.536072975477097E1    -9.572724136217818E-2   -6.536270294401562E1    -4.107896653985338E1    -8.207744395259074E1
 1.774158750000000E8    -4.278275348262687E1    -7.943988465970406E1    -9.488996094898568E-2   -6.550007797338073E1    -9.524591427024066E-2   -6.550104066678259E1    -4.102929177196654E1    -8.218415464692195E1
 1.777907500000000E8    -4.276466703160644E1    -7.932371413818690E1    -9.631030027503865E-2   -6.563987907078501E1    -9.518016371858050E-2   -6.563922487879373E1    -4.090599034992874E1    -8.247588822631218E1
 1.781656250000000E8    -4.279907651912151E1    -7.936867775227087E1    -9.573089901180898E-2   -6.577488669677376E1    -9.545411434154932E-2   -6.577820417683257E1    -4.081640388092570E1    -8.373239542272148E1
 1.785405000000000E8    -4.278645960181933E1    -7.944900565261655E1    -9.596675723867296E-2   -6.591364892698024E1    -9.521292097853978E-2   -6.591466561929199E1    -4.084316515732936E1    -8.320822826764456E1
 1.789153750000000E8    -4.283444679520174E1    -8.019702914073225E1    -9.607139682745480E-2   -6.605175832686788E1    -9.529119106714042E-2   -6.605091157119251E1    -4.092304677099355E1    -8.360223650386101E1
 1.792902500000000E8    -4.278116592553036E1    -8.026852315307364E1    -9.564954240007323E-2   -6.618851563543687E1    -9.616758413748452E-2   -6.618985063950763E1    -4.089324185270708E1    -8.373046237888072E1
 1.796651250000000E8    -4.279662475319894E1    -8.052665136137411E1    -9.595291138928372E-2   -6.632620331397834E1    -9.563873162160537E-2   -6.632775878034823E1    -4.083270285630849E1    -8.439458859728373E1
 1.800400000000000E8    -4.281644093705722E1    -8.135697428884137E1    -9.587380892939712E-2   -6.646098520493902E1    -9.592249336634068E-2   -6.646530622268779E1    -4.087551847866380E1    -8.511269155829760E1
 1.804148750000000E8    -4.285130590645114E1    -8.071292650399178E1    -9.598097835427739E-2   -6.660627607090335E1    -9.612886294890624E-2   -6.660771209970461E1    -4.095727619791148E1    -8.459599402657503E1
 1.807897500000000E8    -4.278303814994266E1    -8.101567278154636E1    -9.691510162068473E-2   -6.674192416739523E1    -9.560698625312727E-2   -6.674494387671555E1    -4.091670470751865E1    -8.424330996193363E1
 1.811646250000000E8    -4.279638701679498E1    -8.042588160949853E1    -9.607359928512421E-2   -6.688180937375526E1    -9.610352505790629E-2   -6.688455838418612E1    -4.090283813633810E1    -8.492418453288232E1
 1.815395000000000E8    -4.286270528941702E1    -8.253800349767157E1    -9.713793380679277E-2   -6.701530899501113E1    -9.630613607615712E-2   -6.701649934823703E1    -4.083772538365167E1    -8.582698161910965E1
 1.819143750000000E8    -4.286216825820513E1    -8.223287874667113E1    -9.712800700418563E-2   -6.715200666178258E1    -9.593464259643186E-2   -6.715387475360208E1    -4.086969629145904E1    -8.637352612354786E1
 1.822892500000000E8    -4.291678795327589E1    -8.353891561792112E1    -9.644999122226128E-2   -6.728993680950718E1    -9.642976268445345E-2   -6.729274810650236E1    -4.085180319086588E1    -8.604305355681160E1
 1.826641250000000E8    -4.275623156827105E1    -8.362439669799396E1    -9.655300628915849E-2   -6.743246516720929E1    -9.678146149240391E-2   -6.743156804237412E1    -4.085643043890985E1    -8.567798600254817E1
 1.830390000000000E8    -4.276532862278218E1    -8.402297449648113E1    -9.708146504063631E-2   -6.756799378231719E1    -9.612923261999828E-2   -6.757455165969556E1    -4.083915704027707E1    -8.540663327449853E1
 1.834138750000000E8    -4.270961177422112E1    -8.389503519175068E1    -9.624181824421928E-2   -6.771044003458421E1    -9.605244264800696E-2   -6.770976119976312E1    -4.096919031033782E1    -8.527409920218956E1
 1.837887500000000E8    -4.297325763792372E1    -8.424410291011301E1    -9.747513788238557E-2   -6.784739493540492E1    -9.611787120084536E-2   -6.784996587083153E1    -4.086399361347566E1    -8.652798863709512E1
 1.841636250000000E8    -4.297061402494283E1    -8.423181176247139E1    -9.770896836518819E-2   -6.798461318959822E1    -9.623630811581789E-2   -6.798847366026538E1    -4.080586270560758E1    -8.756928773181325E1
 1.845385000000000E8    -4.294239351019748E1    -8.450311074666955E1    -9.693502218318996E-2   -6.812321987599738E1    -9.666343793742352E-2   -6.812613339998384E1    -4.081809526294448E1    -8.756538775418021E1
 1.849133750000000E8    -4.279261972324488E1    -8.553235391416713E1    -9.779465902599982E-2   -6.826050941722869E1    -9.651263615396664E-2   -6.826223296033496E1    -4.096972079108572E1    -8.761059703546970E1
 1.852882500000000E8    -4.294653005727751E1    -8.484084891159706E1    -9.821692920342856E-2   -6.840022675202451E1    -9.674940037939275E-2   -6.839768980692996E1    -4.074825614766326E1    -8.788242395415396E1
 1.856631250000000E8    -4.302604633288997E1    -8.559931777847983E1    -9.882249423345528E-2   -6.853452350075149E1    -9.586081357474927E-2   -6.853794154590729E1    -4.071732222918794E1    -8.860206217162269E1
 1.860380000000000E8    -4.280595373668339E1    -8.525328436600714E1    -9.714572237623188E-2   -6.867540344022339E1    -9.776493999410746E-2   -6.867222773370253E1    -4.070795429618228E1    -8.835598067757068E1
 1.864128750000000E8    -4.290745891332321E1    -8.604305347741304E1    -9.753057831665296E-2   -6.881353005720038E1    -9.716865642608558E-2   -6.881104137977620E1    -4.070382425178772E1    -8.806056293109646E1
 1.867877500000000E8    -4.280430928823282E1    -8.604735837807264E1    -9.780931433486911E-2   -6.894755844051966E1    -9.724538924359538E-2   -6.894836817427105E1    -4.072691440016673E1    -8.812537397427978E1
 1.871626250000000E8    -4.289379768497263E1    -8.693843881939546E1    -9.837590659865197E-2   -6.908704852923714E1    -9.710762803641408E-2   -6.908763133837138E1    -4.071835449271745E1    -8.850280057130162E1
 1.875375000000000E8    -4.290618368341821E1    -8.662636763700499E1    -9.793705237807587E-2   -6.922462622506059E1    -9.729323841751238E-2   -6.922218562882964E1    -4.079280628017756E1    -8.983123177418238E1
 1.879123750000000E8    -4.278641873505889E1    -8.791186078169572E1    -9.790345608824019E-2   -6.936003381087774E1    -9.632011483139490E-2   -6.935984753189928E1    -4.064501597889893E1    -9.031849737709148E1
 1.882872500000000E8    -4.290419347037058E1    -8.745949018494979E1    -9.727076991420522E-2   -6.950163571227795E1    -9.732807499332154E-2   -6.950009176159728E1    -4.066981943682356E1    -9.072638791840282E1
 1.886621250000000E8    -4.301724522178000E1    -8.843294207499774E1    -9.739720028027196E-2   -6.964167031620511E1    -9.701725478875375E-2   -6.963923257764132E1    -4.067362680028975E1    -9.034401784140515E1
 1.890370000000000E8    -4.292379332652241E1    -8.983400566760936E1    -9.843940502655642E-2   -6.977911509667548E1    -9.695186496109351E-2   -6.977951593648764E1    -4.064833557575066E1    -9.087949434373780E1
 1.894118750000000E8    -4.293358125048357E1    -8.969186429492960E1    -9.812624968983191E-2   -6.991833777990462E1    -9.798694123155360E-2   -6.991566982929865E1    -4.060127124585559E1    -9.102791035734280E1
 1.897867500000000E8    -4.276156002726598E1    -8.897966287518733E1    -9.838164241439094E-2   -7.005646743726811E1    -9.847524706569249E-2   -7.005377541187877E1    -4.067428522873691E1    -9.159459015980640E1
 1.901616250000000E8    -4.282784483524370E1    -9.003431520301196E1    -9.870083340497815E-2   -7.019587780228281E1    -9.818546095877603E-2   -7.019161522564058E1    -4.070156384917947E1    -9.179121002158573E1
 1.905365000000000E8    -4.298661049868484E1    -9.056329553897295E1    -9.808708539484505E-2   -7.033360780049414E1    -9.815123041248597E-2   -7.033347806866352E1    -4.060806039628410E1    -9.219405293715667E1
 1.909113750000000E8    -4.286497740068999E1    -9.105690265213468E1    -9.871095663359278E-2   -7.047068683842328E1    -9.809981482998634E-2   -7.046965539426716E1    -4.056423810963857E1    -9.251104612658034E1
 1.912862500000000E8    -4.298629664153508E1    -9.231922630613757E1    -9.946419628095998E-2   -7.061240272439282E1    -9.888151487950264E-2   -7.060679573910267E1    -4.063211832066402E1    -9.190632240165192E1
 1.916611250000000E8    -4.287110587195649E1    -9.165065189634760E1    -9.929529732552017E-2   -7.074972342004118E1    -9.941621783857996E-2   -7.074905644418337E1    -4.090936391095158E1    -9.124086641925422E1
 1.920360000000000E8    -4.299956526646420E1    -9.259059951605623E1    -1.001442313071651E-1   -7.088895167663195E1    -9.944966184433776E-2   -7.088797622906364E1    -4.095045774910120E1    -9.029143783894021E1
 1.924108750000000E8    -4.293259353593997E1    -9.251775356198480E1    -1.006548474912833E-1   -7.102535092902700E1    -9.906645425484382E-2   -7.102397631446331E1    -4.088033830732560E1    -9.153110511957401E1
 1.927857500000000E8    -4.289702541453980E1    -9.190422835374005E1    -9.905986235430814E-2   -7.116337477703043E1    -9.975466065687616E-2   -7.116387233832027E1    -4.067410848296889E1    -9.196131949828852E1
 1.931606250000000E8    -4.280492966818997E1    -9.240897087812206E1    -9.878772732923499E-2   -7.130267701002666E1    -9.988645088996100E-2   -7.129951829244244E1    -4.065095426597565E1    -9.308669049568502E1
 1.935355000000000E8    -4.281609262202086E1    -9.295650952468284E1    -9.948486224073877E-2   -7.143813006906919E1    -9.882465483290698E-2   -7.143645637208907E1    -4.065388115767232E1    -9.416742660241755E1
 1.939103750000000E8    -4.295565618880828E1    -9.302991881563743E1    -9.976811814716567E-2   -7.157396549499042E1    -9.918191671801682E-2   -7.157166909397699E1    -4.054120661159286E1    -9.457999116049889E1
 1.942852500000000E8    -4.307632145049241E1    -9.306301994432108E1    -9.958980832519190E-2   -7.171324526665984E1    -9.970165825937793E-2   -7.171358834133915E1    -4.066766541075738E1    -9.485519211845531E1
 1.946601250000000E8    -4.298315570029710E1    -9.348205251989867E1    -1.006693144979979E-1   -7.184953052711204E1    -9.874935408757503E-2   -7.184978588994720E1    -4.048818116197081E1    -9.457632292996148E1
 1.950350000000000E8    -4.294506999223341E1    -9.366229249630092E1    -1.000284371834305E-1   -7.198842570496852E1    -9.963262953954058E-2   -7.199019633988003E1    -4.049885815700857E1    -9.420208886934952E1
 1.954098750000000E8    -4.284478005040960E1    -9.411483396465708E1    -9.988898271810072E-2   -7.212459552255331E1    -9.964506710839705E-2   -7.212704856908410E1    -4.057424241325079E1    -9.505076633143864E1
 1.957847500000000E8    -4.296100871825170E1    -9.534988338858223E1    -1.003014804205550E-1   -7.226118686352933E1    -9.932375705889125E-2   -7.226265685088416E1    -4.048994097570633E1    -9.529047151761650E1
 1.961596250000000E8    -4.274343335408204E1    -9.529335489083178E1    -1.003762637868152E-1   -7.239831271695444E1    -9.956618485968394E-2   -7.240002436621224E1    -4.054054263028151E1    -9.543494143768419E1
 1.965345000000000E8    -4.278826877010262E1    -9.598271304032163E1    -9.928617070028789E-2   -7.253444027246944E1    -1.003616994981794E-1   -7.253593468541972E1    -4.054019111614497E1    -9.629486409239460E1
 1.969093750000000E8    -4.280235019318002E1    -9.577686902312624E1    -9.983580259081636E-2   -7.267301055992026E1    -1.002280241926878E-1   -7.267329055595899E1    -4.062648384739757E1    -9.623291032870674E1
 1.972842500000000E8    -4.281801622603329E1    -9.721100438893913E1    -1.008899055020299E-1   -7.281269147328395E1    -9.983165298221698E-2   -7.281021274992997E1    -4.063953248352221E1    -9.683823546473189E1
 1.976591250000000E8    -4.300027976207390E1    -9.703668156976838E1    -1.002120403763668E-1   -7.294929210262258E1    -1.002798842758294E-1   -7.294780071236596E1    -4.048172573871503E1    -9.630257373051431E1
 1.980340000000000E8    -4.297846415197688E1    -9.651830816347515E1    -1.003658481195056E-1   -7.309084458995015E1    -1.001119458080406E-1   -7.308974928267334E1    -4.066815512961496E1    -9.665382751880222E1
 1.984088750000000E8    -4.290245119467771E1    -9.759444115434658E1    -1.013560890111639E-1   -7.322696634231961E1    -1.003332979611241E-1   -7.322560406673384E1    -4.058559706232202E1    -9.671014866559149E1
 1.987837500000000E8    -4.283019327978234E1    -9.693427292387480E1    -1.011582727165206E-1   -7.336319983371810E1    -1.016236051468177E-1   -7.336273105952610E1    -4.040713264700535E1    -9.759227233672016E1
 1.991586250000000E8    -4.277360418072355E1    -9.766147464300118E1    -1.007612290381087E-1   -7.350464708631296E1    -1.007536820089114E-1   -7.350242310038335E1    -4.050192105863572E1    -9.752010657056806E1
 1.995335000000000E8    -4.292021775811097E1    -9.816288118732480E1    -1.003707200569182E-1   -7.364002885086367E1    -9.975753648589425E-2   -7.364093697732241E1    -4.040411949858068E1    -9.779475731371964E1
 1.999083750000000E8    -4.308158888586702E1    -9.928647457102892E1    -1.003026385448300E-1   -7.377733284359194E1    -1.003837586102229E-1   -7.377676799914339E1    -4.029350727142764E1    -9.883556737156039E1
 2.002832500000000E8    -4.296427965317685E1    -9.941112986315541E1    -1.003644978410242E-1   -7.391670978360060E1    -1.010619837855989E-1   -7.391321190207788E1    -4.035190504785656E1    -9.880652400963696E1
 2.006581250000000E8    -4.300505029758179E1    -9.914145145429457E1    -1.009351204574432E-1   -7.405503536174905E1    -1.002566217354447E-1   -7.405337501721783E1    -4.061230890242270E1    -9.835485225186954E1
 2.010330000000000E8    -4.306885510892491E1    -9.952053779675813E1    -1.011059470049415E-1   -7.419221973044007E1    -1.000084845635763E-1   -7.419329936037211E1    -4.042263249024104E1    -9.864387804634406E1
 2.014078750000000E8    -4.300562296830353E1    -9.996771970418588E1    -1.005205573327434E-1   -7.433208885092898E1    -9.974612195802107E-2   -7.433395116063424E1    -4.044854062215645E1    -9.884729329975731E1
 2.017827500000000E8    -4.301756300100288E1    -1.000797163497663E2    -1.011651740663416E-1   -7.447429306315719E1    -9.953483719792394E-2   -7.447148397743926E1    -4.044714456595247E1    -9.900648232647097E1
 2.021576250000000E8    -4.295299909817252E1    -1.004630533487643E2    -1.007035999483607E-1   -7.460988074975897E1    -1.005330075687459E-1   -7.460922360679183E1    -4.044914993767772E1    -9.986026064698152E1
 2.025325000000000E8    -4.294364253748324E1    -1.008327347550227E2    -1.010591457030566E-1   -7.474519567199643E1    -1.004014413090057E-1   -7.474683121706396E1    -4.045844089637718E1    -1.005497341103039E2
 2.029073750000000E8    -4.318589541652790E1    -1.011620299943055E2    -1.011611459190430E-1   -7.488170799980956E1    -1.001544508545410E-1   -7.487973902943530E1    -4.058210640866642E1    -1.008315549246139E2
 2.032822500000000E8    -4.300938600710963E1    -1.014031773056594E2    -1.004998002117257E-1   -7.501935164524686E1    -9.953872560190427E-2   -7.502103627607403E1    -4.056990664158234E1    -1.013561117971669E2
 2.036571250000000E8    -4.302553355360936E1    -1.030553066733149E2    -1.006214420742048E-1   -7.515981490500477E1    -1.015225849213992E-1   -7.515879441192395E1    -4.056342917712386E1    -1.015888645444594E2
 2.040320000000000E8    -4.304136090330839E1    -1.042536451996571E2    -1.009304433527716E-1   -7.530014574645486E1    -1.014042027162899E-1   -7.529508645829850E1    -4.049227951307049E1    -1.015902217320806E2
 2.044068750000000E8    -4.308528283870792E1    -1.039661291884558E2    -1.006039667479509E-1   -7.543577202596998E1    -1.009417548190329E-1   -7.543366707457625E1    -4.052433381691656E1    -1.017792030940138E2
 2.047817500000000E8    -4.311699471662115E1    -1.042294813663361E2    -1.010136723268553E-1   -7.557378503854632E1    -1.006388318019571E-1   -7.557491766961512E1    -4.029873230132849E1    -1.018451702195073E2
 2.051566250000000E8    -4.298512574096277E1    -1.042603664009511E2    -1.017272269209946E-1   -7.571235461870442E1    -1.005708540127737E-1   -7.571305345766578E1    -4.053517752291921E1    -1.013393846151898E2
 2.055315000000000E8    -4.305493344710999E1    -1.043721153374469E2    -1.013697284862827E-1   -7.585139521949708E1    -1.009881772739209E-1   -7.585232405683291E1    -4.045289868639686E1    -1.022030911136075E2
 2.059063750000000E8    -4.312133346376655E1    -1.049856157417093E2    -1.021452439590082E-1   -7.598936252005458E1    -1.009884603972635E-1   -7.598745353499193E1    -4.038662846719244E1    -1.029368749622864E2
 2.062812500000000E8    -4.304562041750203E1    -1.050811050846771E2    -1.016544313525388E-1   -7.612739885639449E1    -1.012647968548202E-1   -7.612621389665580E1    -4.039385733466811E1    -1.034682084507720E2
 2.066561250000000E8    -4.299749778425418E1    -1.052406552914355E2    -1.016725901686374E-1   -7.626626161720182E1    -1.009213585381252E-1   -7.626597294908774E1    -4.026242050920187E1    -1.036621538811433E2
 2.070310000000000E8    -4.294452445642488E1    -1.055903955392209E2    -9.974404553795028E-2   -7.640373827227539E1    -1.014057314168007E-1   -7.640101068027892E1    -4.032732775999246E1    -1.033830491149664E2
 2.074058750000000E8    -4.295909904640446E1    -1.052022581909699E2    -1.019492847819988E-1   -7.654417758858580E1    -1.016064590997739E-1   -7.654228325141067E1    -4.040417193863770E1    -1.036009649940901E2
 2.077807500000000E8    -4.304957277168634E1    -1.059395197236328E2    -1.019496180631023E-1   -7.668482553622692E1    -1.018857453336841E-1   -7.668094526601880E1    -4.051369133927957E1    -1.040707532375405E2
 2.081556250000000E8    -4.317895836488172E1    -1.051641286145339E2    -1.033341737829322E-1   -7.682119192819150E1    -1.012863110249682E-1   -7.681992413771982E1    -4.035299199617550E1    -1.048923564418173E2
 2.085305000000000E8    -4.318615052280693E1    -1.061174308007451E2    -1.023021510111086E-1   -7.695298849852638E1    -1.020704547910424E-1   -7.695501564607893E1    -4.049938061423948E1    -1.047474500897670E2
 2.089053750000000E8    -4.314596429894218E1    -1.067695806677247E2    -1.020409792425716E-1   -7.708870260690146E1    -1.020982006365041E-1   -7.708864859469202E1    -4.048086400908638E1    -1.051515917956076E2
 2.092802500000000E8    -4.323576591263804E1    -1.070128768694457E2    -1.021083374678214E-1   -7.722798905674223E1    -1.017478430956855E-1   -7.722727044505049E1    -4.041356569700130E1    -1.053065053943019E2
 2.096551250000000E8    -4.317261596140698E1    -1.074467544009286E2    -1.019090895987889E-1   -7.737090730447497E1    -1.016033662307049E-1   -7.736727321606276E1    -4.042585632931308E1    -1.052976034153326E2
 2.100300000000000E8    -4.307996432744886E1    -1.087595848024476E2    -1.019201625657135E-1   -7.750690838265349E1    -1.018061897748658E-1   -7.751003151344675E1    -4.030343896629929E1    -1.053302640455711E2
 2.104048750000000E8    -4.312227166202099E1    -1.091004711375039E2    -1.020785891830448E-1   -7.764805501164636E1    -1.022456681129830E-1   -7.764513552485401E1    -4.028923523421093E1    -1.058277858421831E2
 2.107797500000000E8    -4.306844372362009E1    -1.096514137805559E2    -1.023115776535242E-1   -7.778806923806624E1    -1.026306782543483E-1   -7.778313938249845E1    -4.031402641380178E1    -1.064900315713725E2
 2.111546250000000E8    -4.312352965919022E1    -1.102373088100900E2    -1.027744162901986E-1   -7.792350707444868E1    -1.027948542476876E-1   -7.792278301083837E1    -4.027765992539226E1    -1.065511853190249E2
 2.115295000000000E8    -4.309449236986144E1    -1.097044029492843E2    -1.023401352707594E-1   -7.806206219145467E1    -1.023465969394594E-1   -7.805695289217563E1    -4.024319030170419E1    -1.069160333744579E2
 2.119043750000000E8    -4.307633846763559E1    -1.105491765282184E2    -1.028603647532054E-1   -7.819654682752375E1    -1.020426967463008E-1   -7.819638959864405E1    -4.025610196148993E1    -1.070560344645264E2
 2.122792500000000E8    -4.302100841225765E1    -1.110739438711947E2    -1.032244983851147E-1   -7.833325957973520E1    -1.022181482502513E-1   -7.833279428384063E1    -4.035667777504919E1    -1.070958705985541E2
 2.126541250000000E8    -4.303115566119658E1    -1.105799837805107E2    -1.032548993963435E-1   -7.847270677232760E1    -1.031219192951117E-1   -7.847007640688689E1    -4.032964048346536E1    -1.074744982430256E2
 2.130290000000000E8    -4.300531487882304E1    -1.118406576116356E2    -1.035164896928350E-1   -7.861088365173519E1    -1.029688559340693E-1   -7.860462607275004E1    -4.020834545212884E1    -1.073378131383820E2
 2.134038750000000E8    -4.303953751269503E1    -1.124064483293745E2    -1.038503329671875E-1   -7.874343486588315E1    -1.029568108317716E-1   -7.874491557305069E1    -4.018532111679584E1    -1.079268901775212E2
 2.137787500000000E8    -4.324079980144408E1    -1.127183789229413E2    -1.025999140947917E-1   -7.888393650514153E1    -1.028162577886330E-1   -7.888366039382676E1    -4.026012765666145E1    -1.076937728371317E2
 2.141536250000000E8    -4.325834081084071E1    -1.128856452850847E2    -1.023695650191014E-1   -7.902237659842834E1    -1.037508539238741E-1   -7.901923168389555E1    -4.018505537328175E1    -1.081739460120731E2
 2.145285000000000E8    -4.304527654511305E1    -1.133188744070350E2    -1.025281114378147E-1   -7.916366554844373E1    -1.034624452417400E-1   -7.915912803897112E1    -4.021421374740637E1    -1.092659366392916E2
 2.149033750000000E8    -4.297639017622199E1    -1.137397747744583E2    -1.035186883736342E-1   -7.930246765351093E1    -1.036112407129322E-1   -7.929931149710166E1    -4.016132295081073E1    -1.096457683126293E2
 2.152782500000000E8    -4.318356143483121E1    -1.140363150021899E2    -1.039159353108046E-1   -7.943743167320370E1    -1.036324787113638E-1   -7.943738610958312E1    -4.019649513334298E1    -1.095958477863062E2
 2.156531250000000E8    -4.320399507311640E1    -1.143356182272502E2    -1.038186275338087E-1   -7.957668194477618E1    -1.024613441499843E-1   -7.957513133936010E1    -4.044877658573469E1    -1.087503501201431E2
 2.160280000000000E8    -4.316220295870620E1    -1.151355988736333E2    -1.031870903424747E-1   -7.971410166994423E1    -1.024508829975282E-1   -7.971304555838763E1    -4.032790732099351E1    -1.097324504673263E2
 2.164028750000000E8    -4.314792007985452E1    -1.155177370172439E2    -1.032452737876159E-1   -7.985024971055128E1    -1.036077484048578E-1   -7.985198185737042E1    -4.018002641272578E1    -1.104123638887122E2
 2.167777500000000E8    -4.296597927831708E1    -1.159412518065419E2    -1.041260554617551E-1   -7.998769410814725E1    -1.028630934829469E-1   -7.998977234266795E1    -4.006700945940993E1    -1.113281735360637E2
 2.171526250000000E8    -4.311480357932221E1    -1.162035549343490E2    -1.039844100146994E-1   -8.012609451981420E1    -1.036209052579386E-1   -8.012793356448805E1    -4.010260115729275E1    -1.114404776334893E2
 2.175275000000000E8    -4.312774469454409E1    -1.168004819037085E2    -1.044168432132493E-1   -8.026680387439517E1    -1.032160103571994E-1   -8.026471846853001E1    -4.024691518519510E1    -1.111436817400685E2
 2.179023750000000E8    -4.313512589340272E1    -1.171984656465753E2    -1.040412528488783E-1   -8.039938394362221E1    -1.043524990848429E-1   -8.040290032624908E1    -4.013965182833543E1    -1.110895931231013E2
 2.182772500000000E8    -4.301934532570361E1    -1.173741441057282E2    -1.044113853480337E-1   -8.053816610703248E1    -1.034179123880550E-1   -8.053930188241277E1    -4.016807167905047E1    -1.112767640796092E2
 2.186521250000000E8    -4.304689152400237E1    -1.179094639715091E2    -1.039965259712707E-1   -8.067448567043105E1    -1.027558882091641E-1   -8.067755638266274E1    -4.022031218219182E1    -1.120374161274300E2
 2.190270000000000E8    -4.302023509163350E1    -1.184225765602611E2    -1.036425741319099E-1   -8.081337100791596E1    -1.030764430395164E-1   -8.081194501138258E1    -4.020895438923802E1    -1.122850064286081E2
 2.194018750000000E8    -4.321406681248149E1    -1.193426548237003E2    -1.033480943141781E-1   -8.095375966062011E1    -1.034719519420425E-1   -8.095201578447204E1    -4.020385407484780E1    -1.126622152588060E2
 2.197767500000000E8    -4.318055009492568E1    -1.195568767010241E2    -1.040502992986547E-1   -8.109159707682508E1    -1.028574076223718E-1   -8.109191646567361E1    -4.007548790306996E1    -1.132846690353092E2
 2.201516250000000E8    -4.321570933622300E1    -1.194802711957999E2    -1.047020660564652E-1   -8.122952890459405E1    -1.035086038447051E-1   -8.123024137181137E1    -4.013032271404611E1    -1.130396711089224E2
 2.205265000000000E8    -4.322178641731085E1    -1.198912903146616E2    -1.044559024552750E-1   -8.136901118693375E1    -1.034095118876213E-1   -8.136839984972229E1    -4.007708208585682E1    -1.137822071330738E2
 2.209013750000000E8    -4.308399067369605E1    -1.199991748008909E2    -1.045433267210585E-1   -8.151081861137298E1    -1.035881064579822E-1   -8.150945320073755E1    -3.999699536612614E1    -1.144569233750540E2
 2.212762500000000E8    -4.313166164843005E1    -1.203403424907343E2    -1.051714926264612E-1   -8.164716738581532E1    -1.039169845523602E-1   -8.164394428893583E1    -4.010913263832737E1    -1.143563029500499E2
 2.216511250000000E8    -4.305717095467679E1    -1.208067057316928E2    -1.042591409241113E-1   -8.178496888294589E1    -1.041046475625244E-1   -8.178041291038541E1    -4.006567182098333E1    -1.143278217449297E2
 2.220260000000000E8    -4.321327634602977E1    -1.204408724536280E2    -1.051141797150358E-1   -8.192102820648265E1    -1.041985023117681E-1   -8.191921181913185E1    -4.008323443841871E1    -1.148245715645850E2
 2.224008750000000E8    -4.323137508900318E1    -1.212599718649131E2    -1.061206757045611E-1   -8.205593209366499E1    -1.045744642580306E-1   -8.205862621788783E1    -4.006843480788405E1    -1.149231384729342E2
 2.227757500000000E8    -4.323270373809613E1    -1.217343841069308E2    -1.051461720087742E-1   -8.219484578907381E1    -1.047578461138680E-1   -8.219677966405571E1    -4.002035317713364E1    -1.149505041172003E2
 2.231506250000000E8    -4.331332233734017E1    -1.216049367942587E2    -1.047616288666049E-1   -8.233599371510435E1    -1.042814796451638E-1   -8.233473984463780E1    -4.007464847077224E1    -1.152835676635090E2
 2.235255000000000E8    -4.323370169164112E1    -1.217955046869950E2    -1.051959633110760E-1   -8.247422057924059E1    -1.041741992954289E-1   -8.247269747742054E1    -4.003804728966536E1    -1.155749026122169E2
 2.239003750000000E8    -4.324941510466643E1    -1.221117051862903E2    -1.049291283124089E-1   -8.261191506500700E1    -1.042216241222899E-1   -8.261262633107435E1    -4.006389864387533E1    -1.148803324571955E2
 2.242752500000000E8    -4.324204090107643E1    -1.225374849737192E2    -1.050343766717861E-1   -8.274957855542010E1    -1.041370016387445E-1   -8.274948671783520E1    -3.997671960890826E1    -1.153814678518871E2
 2.246501250000000E8    -4.302699323858596E1    -1.221220162115721E2    -1.059952181782328E-1   -8.288739916840954E1    -1.041299723202811E-1   -8.288864241277712E1    -4.002056285631051E1    -1.156722982161259E2
 2.250250000000000E8    -4.304018974336736E1    -1.223345365337986E2    -1.049515636203423E-1   -8.302429215979375E1    -1.048238202791312E-1   -8.302474551917460E1    -3.994084512699111E1    -1.156989198389318E2
 2.253998750000000E8    -4.316107307560667E1    -1.231567899901857E2    -1.048960270246325E-1   -8.316330866382816E1    -1.044354779085168E-1   -8.315904070814135E1    -3.987768353513715E1    -1.165167115801964E2
 2.257747500000000E8    -4.322555767251069E1    -1.244675744591845E2    -1.054109955272766E-1   -8.330062434568852E1    -1.051021675347828E-1   -8.329753303778099E1    -3.998721873588375E1    -1.175486710599971E2
 2.261496250000000E8    -4.329503455001402E1    -1.249549820977649E2    -1.060133013421181E-1   -8.343819836573995E1    -1.049211884615335E-1   -8.343719874490222E1    -4.008656162157586E1    -1.173990842016613E2
 2.265245000000000E8    -4.319520539958363E1    -1.257129743854337E2    -1.062596904819667E-1   -8.357645625176954E1    -1.044448791722936E-1   -8.357551267772445E1    -4.010333665947002E1    -1.175226417076472E2
 2.268993750000000E8    -4.315477503957303E1    -1.261782027193575E2    -1.058332829494345E-1   -8.371849268103395E1    -1.040761982583746E-1   -8.371553343697803E1    -4.008919566015899E1    -1.167897285308716E2
 2.272742500000000E8    -4.325095114385044E1    -1.266703209462566E2    -1.058405514760211E-1   -8.385305955768091E1    -1.050117157184628E-1   -8.385258566444523E1    -3.997119882575036E1    -1.172687774341883E2
 2.276491250000000E8    -4.318524562047071E1    -1.273429058253556E2    -1.056676097732816E-1   -8.399028464478516E1    -1.050463347861275E-1   -8.398966632809687E1    -3.992508611568294E1    -1.182398622330193E2
 2.280240000000000E8    -4.308443114205648E1    -1.281080812037942E2    -1.057908178062734E-1   -8.412782499943643E1    -1.059083346281367E-1   -8.412687930208101E1    -3.996420828544401E1    -1.184589961832516E2
 2.283988750000000E8    -4.313873939116193E1    -1.278170903165156E2    -1.062143802318904E-1   -8.426767342805051E1    -1.056368794061477E-1   -8.426546210357768E1    -3.996059283028045E1    -1.187100461592441E2
 2.287737500000000E8    -4.310890629975216E1    -1.282359772522623E2    -1.060863580475160E-1   -8.440610965313894E1    -1.057384229679856E-1   -8.440003911634547E1    -3.986826265828020E1    -1.189697560678907E2
 2.291486250000000E8    -4.310807572109109E1    -1.280290090069604E2    -1.060989139083899E-1   -8.454494134759808E1    -1.055565617131228E-1   -8.454009558516084E1    -3.975617388995904E1    -1.189751447059062E2
 2.295235000000000E8    -4.308738191878285E1    -1.284647118540377E2    -1.058571280353379E-1   -8.467680709595643E1    -1.053129758054115E-1   -8.467987982876912E1    -3.987783391006831E1    -1.197096504144586E2
 2.298983750000000E8    -4.319478558514935E1    -1.283307729016589E2    -1.064289130827716E-1   -8.481476514045582E1    -1.052054452871223E-1   -8.481552539728297E1    -3.991776226175472E1    -1.199791268959452E2
 2.302732500000000E8    -4.311819190389044E1    -1.286878026445282E2    -1.065625914697877E-1   -8.495655969251986E1    -1.058976613086560E-1   -8.495401807467350E1    -3.997474747895031E1    -1.198111616089599E2
 2.306481250000000E8    -4.303155098831193E1    -1.303520621137529E2    -1.067515142832897E-1   -8.509338906184324E1    -1.065835381702879E-1   -8.508931578605015E1    -3.998419959273181E1    -1.204896521417895E2
 2.310230000000000E8    -4.305624974334552E1    -1.308784061731098E2    -1.067886797486076E-1   -8.522867123183663E1    -1.071424474990278E-1   -8.523042735789558E1    -3.992863943677318E1    -1.212563657828880E2
 2.313978750000000E8    -4.304090653937622E1    -1.301600513529898E2    -1.072379242203415E-1   -8.536481987686841E1    -1.066731331099963E-1   -8.536804706729606E1    -3.998524169576119E1    -1.215479955034485E2
 2.317727500000000E8    -4.291957480084689E1    -1.318348533457327E2    -1.079410768588391E-1   -8.550289969265441E1    -1.061228690868535E-1   -8.550301444131085E1    -3.979194531515525E1    -1.220160547491730E2
 2.321476250000000E8    -4.290472167937787E1    -1.316147797221327E2    -1.067220729761470E-1   -8.564069178093563E1    -1.070623017428374E-1   -8.564333663661694E1    -3.990269873315769E1    -1.224566638400164E2
 2.325225000000000E8    -4.296171741066171E1    -1.322752729464978E2    -1.069024105339405E-1   -8.577629347787477E1    -1.067297326445907E-1   -8.577846932738755E1    -3.994876752805720E1    -1.222893834071533E2
 2.328973750000000E8    -4.299552169038031E1    -1.321678462166099E2    -1.081070914277386E-1   -8.591633129781709E1    -1.073718205588255E-1   -8.591475667550073E1    -3.987122167362620E1    -1.222424978820443E2
 2.332722500000000E8    -4.309027740321852E1    -1.324515480783730E2    -1.079363474833359E-1   -8.605655337171143E1    -1.071548837763357E-1   -8.605411649424406E1    -3.981932114012770E1    -1.223536083734214E2
 2.336471250000000E8    -4.305225566627157E1    -1.329645202461228E2    -1.080338646021774E-1   -8.619246341959953E1    -1.065690602118110E-1   -8.619476031439453E1    -3.976453370175320E1    -1.222997825057638E2
 2.340220000000000E8    -4.290501232091322E1    -1.347451559724375E2    -1.073973972907523E-1   -8.632969447112615E1    -1.070581920272577E-1   -8.633038899509414E1    -3.973634087365013E1    -1.233113600020635E2
 2.343968750000000E8    -4.309314802782186E1    -1.346835119746929E2    -1.075625948646348E-1   -8.647035798906388E1    -1.074618687288281E-1   -8.646907137466408E1    -3.977630989719524E1    -1.230496918606435E2
 2.347717500000000E8    -4.306874981827092E1    -1.343984874450384E2    -1.077010398720520E-1   -8.661003304033063E1    -1.079290548956994E-1   -8.660855446230649E1    -3.977560357904057E1    -1.227378125891324E2
 2.351466250000000E8    -4.305711540409141E1    -1.356300925373077E2    -1.085689107157853E-1   -8.674993501147138E1    -1.072955754885365E-1   -8.674633743691906E1    -3.998715755542620E1    -1.233976389164863E2
 2.355215000000000E8    -4.309332045836143E1    -1.360483196925418E2    -1.078527144756800E-1   -8.688586495120572E1    -1.074258037327067E-1   -8.688275924756736E1    -3.985595096341092E1    -1.242119764674072E2
 2.358963750000000E8    -4.313474523227367E1    -1.361791765712330E2    -1.078037436509838E-1   -8.702301590601348E1    -1.080680299850609E-1   -8.702066189587710E1    -3.981311329961584E1    -1.242251351655606E2
 2.362712500000000E8    -4.303019397747074E1    -1.365322593849061E2    -1.079837011765320E-1   -8.716261300656448E1    -1.069626690570988E-1   -8.715810149555074E1    -3.985487193927108E1    -1.254521345418414E2
 2.366461250000000E8    -4.300517999585676E1    -1.369405035523193E2    -1.076130809195002E-1   -8.730142372062311E1    -1.082888369145134E-1   -8.729726532407166E1    -3.971914981867172E1    -1.250920515555560E2
 2.370210000000000E8    -4.295502709756655E1    -1.374468975677188E2    -1.081242888442626E-1   -8.743852362601973E1    -1.076342104160215E-1   -8.743689784341278E1    -3.980341313720639E1    -1.256991934336594E2
 2.373958750000000E8    -4.291800492219793E1    -1.379926150241010E2    -1.081663671086377E-1   -8.757503313900837E1    -1.081262900570831E-1   -8.757490560365335E1    -3.973092307283067E1    -1.254282604497256E2
 2.377707500000000E8    -4.282192437801239E1    -1.378896171836278E2    -1.080407378801882E-1   -8.771503659118422E1    -1.081284449519514E-1   -8.770777327688317E1    -3.972706411156642E1    -1.253004519661950E2
 2.381456250000000E8    -4.294802891545217E1    -1.378623873967647E2    -1.086323853741069E-1   -8.784981304788614E1    -1.076429909428796E-1   -8.784756280061950E1    -3.981629205806345E1    -1.255242101963268E2
 2.385205000000000E8    -4.289157467208299E1    -1.391312979399268E2    -1.082741129472159E-1   -8.798730610005674E1    -1.082702160078997E-1   -8.798381035360995E1    -3.962036223315338E1    -1.260279383381883E2
 2.388953750000000E8    -4.283820659764742E1    -1.389619140626999E2    -1.080066554569537E-1   -8.812418488560806E1    -1.087699024031048E-1   -8.812285128512687E1    -3.954478173797421E1    -1.272306232221239E2
 2.392702500000000E8    -4.273595672551996E1    -1.395396128828699E2    -1.082331636515692E-1   -8.826336962891494E1    -1.083623364311066E-1   -8.825801249428861E1    -3.974039247715433E1    -1.276122921264199E2
 2.396451250000000E8    -4.266490167903378E1    -1.402604853451618E2    -1.088664011481082E-1   -8.840184714027066E1    -1.082571394410776E-1   -8.839665637562877E1    -3.966082549734494E1    -1.278038804577041E2
 2.400200000000000E8    -4.268974119869821E1    -1.396829701912108E2    -1.087472296937231E-1   -8.854058679366189E1    -1.087674569583765E-1   -8.853637741814701E1    -3.966621049342399E1    -1.274674600877189E2
 2.403948750000000E8    -4.267443856933117E1    -1.410035590588747E2    -1.090013772118939E-1   -8.867860905790836E1    -1.081433462930356E-1   -8.867162355546924E1    -3.960773845994824E1    -1.275480350522990E2
 2.407697500000000E8    -4.264392239281642E1    -1.414444047254161E2    -1.089519631465000E-1   -8.881334996400692E1    -1.077798685409052E-1   -8.881050300053703E1    -3.973317341918892E1    -1.281106332009309E2
 2.411446250000000E8    -4.263798858582390E1    -1.420599952971519E2    -1.093683843939408E-1   -8.894973246152487E1    -1.074668882057396E-1   -8.894632492597113E1    -3.969015405221587E1    -1.284964825669501E2
 2.415195000000000E8    -4.273830474200494E1    -1.423975088260466E2    -1.082470497118907E-1   -8.908909131615671E1    -1.089077990690372E-1   -8.908369765201844E1    -3.959219079489872E1    -1.290032599603790E2
 2.418943750000000E8    -4.262314818307256E1    -1.428750715721969E2    -1.088542319333054E-1   -8.923076980299427E1    -1.092632861645740E-1   -8.922519605100591E1    -3.956488203807639E1    -1.295166092339200E2
 2.422692500000000E8    -4.273418553326699E1    -1.439332689222104E2    -1.093435381363315E-1   -8.936640758541002E1    -1.092881072381915E-1   -8.936199463716542E1    -3.955499962749568E1    -1.301217654059912E2
 2.426441250000000E8    -4.265063780179371E1    -1.439019140738015E2    -1.090427516666416E-1   -8.950350407773033E1    -1.085724700514424E-1   -8.949921520783501E1    -3.956261200681610E1    -1.307544829724675E2
 2.430190000000000E8    -4.273208462622823E1    -1.445747889687304E2    -1.079166038442434E-1   -8.963970204351435E1    -1.078190116524507E-1   -8.963492652252019E1    -3.961229330174923E1    -1.303633407784699E2
 2.433938750000000E8    -4.276164204696191E1    -1.446164948301139E2    -1.085421023730889E-1   -8.978004715153774E1    -1.079493583629910E-1   -8.977532563171204E1    -3.958138353127738E1    -1.306444965447083E2
 2.437687500000000E8    -4.260778240117747E1    -1.448496301687177E2    -1.091874336674555E-1   -8.991799353358812E1    -1.087266258879496E-1   -8.991718994770461E1    -3.958672953095532E1    -1.300068436901786E2
 2.441436250000000E8    -4.262384653255434E1    -1.439493841096959E2    -1.088175781077519E-1   -9.005667700042287E1    -1.091198447103176E-1   -9.005710233974901E1    -3.957876936944608E1    -1.302210282243825E2
 2.445185000000000E8    -4.269013515188701E1    -1.444048283496673E2    -1.092739034611638E-1   -9.019528563391998E1    -1.097137997447551E-1   -9.019100604765046E1    -3.962285477566718E1    -1.307998186804132E2
 2.448933750000000E8    -4.265625996450683E1    -1.449872517711825E2    -1.094151158454544E-1   -9.033308330403682E1    -1.091596929227491E-1   -9.032789165024650E1    -3.958051404375664E1    -1.311850255894700E2
 2.452682500000000E8    -4.245056524205660E1    -1.455874493707041E2    -1.101117479129736E-1   -9.047054083464593E1    -1.087251493726091E-1   -9.047081723079042E1    -3.963143097470854E1    -1.311301932637557E2
 2.456431250000000E8    -4.262714112735566E1    -1.456675376861114E2    -1.106617377148250E-1   -9.060993997493365E1    -1.089641435475435E-1   -9.060465494996879E1    -3.955118113630209E1    -1.314947169774522E2
 2.460180000000000E8    -4.266302839366223E1    -1.463291806767018E2    -1.103945008924631E-1   -9.074545596039877E1    -1.103322994460983E-1   -9.074186055232245E1    -3.954224613916855E1    -1.312856040079660E2
 2.463928750000000E8    -4.262344410468743E1    -1.465700876527212E2    -1.102292011857268E-1   -9.088304514344577E1    -1.108699510885117E-1   -9.087759460553113E1    -3.955241639217039E1    -1.325737841057767E2
 2.467677500000000E8    -4.247793448856200E1    -1.474497210236951E2    -1.099551543654466E-1   -9.102123675119935E1    -1.098396329808302E-1   -9.101900721947969E1    -3.959967634986375E1    -1.323596514799446E2
 2.471426250000000E8    -4.247896141672365E1    -1.477954399451835E2    -1.098095322341180E-1   -9.115892206012219E1    -1.095624227964012E-1   -9.115645395076676E1    -3.953226119446701E1    -1.331459839786939E2
 2.475175000000000E8    -4.248739260574587E1    -1.487697273659079E2    -1.103932691637336E-1   -9.129743853010808E1    -1.094497840948519E-1   -9.129271521277293E1    -3.947295203905252E1    -1.334480383945946E2
 2.478923750000000E8    -4.242815440834940E1    -1.500863199464465E2    -1.103300027563460E-1   -9.143264064117115E1    -1.091254672342594E-1   -9.143185919144321E1    -3.950785359913328E1    -1.340672577440707E2
 2.482672500000000E8    -4.245990303665177E1    -1.500821238583197E2    -1.098613036112359E-1   -9.157257280714470E1    -1.096302736314971E-1   -9.156784585846924E1    -3.947480298688114E1    -1.345227952006672E2
 2.486421250000000E8    -4.233531899164216E1    -1.497426318632150E2    -1.103026529849290E-1   -9.170744709275607E1    -1.108734625485878E-1   -9.171000372924614E1    -3.941415481353396E1    -1.347880234322609E2
 2.490170000000000E8    -4.230111626958242E1    -1.499416317180351E2    -1.106011776100699E-1   -9.184782407632180E1    -1.100859049580966E-1   -9.184575235702832E1    -3.948848841020499E1    -1.343622020543021E2
 2.493918750000000E8    -4.230920849089411E1    -1.503609719846776E2    -1.103272737647632E-1   -9.198835831653685E1    -1.111569228419969E-1   -9.198412749232378E1    -3.949988820515439E1    -1.346922308278425E2
 2.497667500000000E8    -4.237176878467344E1    -1.512419314876216E2    -1.107573705466743E-1   -9.212823425032549E1    -1.109707118142719E-1   -9.212164184743970E1    -3.942440778129288E1    -1.349924791454413E2
 2.501416250000000E8    -4.235109034065783E1    -1.511748656912675E2    -1.106490383650345E-1   -9.226756187607991E1    -1.102319122773802E-1   -9.226144331990444E1    -3.940867311415178E1    -1.351489468962504E2
 2.505165000000000E8    -4.238677140410466E1    -1.529849749058808E2    -1.104869690013241E-1   -9.240215970733989E1    -1.101239396094489E-1   -9.239864657187155E1    -3.941995365592187E1    -1.354455792727071E2
 2.508913750000000E8    -4.235363836907159E1    -1.519841250599972E2    -1.112719908858936E-1   -9.254060184320248E1    -1.101883136797800E-1   -9.253510760122300E1    -3.937964399575526E1    -1.359726411853257E2
 2.512662500000000E8    -4.226446617396856E1    -1.522669186808210E2    -1.105506777051579E-1   -9.267692236472956E1    -1.110238772176365E-1   -9.267499330336639E1    -3.935405886089901E1    -1.358441882479470E2
 2.516411250000000E8    -4.220946075455216E1    -1.526482170627453E2    -1.107947167296867E-1   -9.281505995073314E1    -1.104957740943067E-1   -9.281009841065080E1    -3.951248116487668E1    -1.364314786387071E2
 2.520160000000000E8    -4.206110241049821E1    -1.531489494778477E2    -1.102856973345350E-1   -9.295212678887306E1    -1.107093869149109E-1   -9.294896022123847E1    -3.941999096958394E1    -1.365666272419275E2
 2.523908750000000E8    -4.213132181980846E1    -1.530062879970125E2    -1.109574527186115E-1   -9.309079238133261E1    -1.104003593246255E-1   -9.308875691016841E1    -3.938793069396311E1    -1.373373288165357E2
 2.527657500000000E8    -4.216291593681035E1    -1.541368458585982E2    -1.115590829590127E-1   -9.322828078446339E1    -1.099487678004594E-1   -9.322830118505179E1    -3.934813162829797E1    -1.375228854869894E2
 2.531406250000000E8    -4.209088736286786E1    -1.537404581640508E2    -1.113941338550928E-1   -9.336826775665411E1    -1.110509797721318E-1   -9.336332217714850E1    -3.926481010527814E1    -1.378245055485096E2
 2.535155000000000E8    -4.211672335288127E1    -1.547357860273397E2    -1.115166375151044E-1   -9.350320612634771E1    -1.112537935408644E-1   -9.349977342815258E1    -3.924901029755102E1    -1.382376991472123E2
 2.538903750000000E8    -4.194651482459446E1    -1.552815335645041E2    -1.112278329392160E-1   -9.363942333219893E1    -1.114308306211559E-1   -9.364135534771501E1    -3.938111950819884E1    -1.380549229092332E2
 2.542652500000000E8    -4.206409483669782E1    -1.557180677441745E2    -1.121770756094131E-1   -9.377900424295277E1    -1.114054636620064E-1   -9.377535121975878E1    -3.938280497292337E1    -1.384159319603838E2
 2.546401250000000E8    -4.197061733608336E1    -1.562493159040691E2    -1.114399631338480E-1   -9.391482544027097E1    -1.108942255841111E-1   -9.391340565624569E1    -3.948836407896911E1    -1.389945699842636E2
 2.550150000000000E8    -4.187036043048677E1    -1.560025514165140E2    -1.121448975639166E-1   -9.405419592501953E1    -1.107471740926854E-1   -9.405219893543290E1    -3.930454649878502E1    -1.391024783380308E2
 2.553898750000000E8    -4.184176175194459E1    -1.554132342761174E2    -1.115756069786312E-1   -9.419288300647317E1    -1.116600885034664E-1   -9.419167741856413E1    -3.930856895940695E1    -1.391994800495347E2
 2.557647500000000E8    -4.183473010835765E1    -1.567087202333020E2    -1.119149004481034E-1   -9.432799572363416E1    -1.119046062809793E-1   -9.432963860550683E1    -3.932933040000538E1    -1.397021666255250E2
 2.561396250000000E8    -4.190757035440755E1    -1.563315949341741E2    -1.118183973277390E-1   -9.446851620408991E1    -1.108841843684097E-1   -9.446223814157032E1    -3.930344931274485E1    -1.402274669484007E2
 2.565145000000000E8    -4.186724158276430E1    -1.570329900122440E2    -1.118832579958289E-1   -9.460261817081731E1    -1.119594742325195E-1   -9.460195745499594E1    -3.921494713464267E1    -1.406604871425131E2
 2.568893750000000E8    -4.179011655262921E1    -1.574578127030746E2    -1.115863960363353E-1   -9.473937298076515E1    -1.123186617071544E-1   -9.473866506815911E1    -3.920876686521495E1    -1.408152789384504E2
 2.572642500000000E8    -4.177033109130544E1    -1.584434315836922E2    -1.114082310387361E-1   -9.487569994827518E1    -1.112956531838507E-1   -9.487721496263354E1    -3.933760058581259E1    -1.417311872227050E2
 2.576391250000000E8    -4.171157856043035E1    -1.600426220578302E2    -1.115877819612359E-1   -9.501518635510971E1    -1.115391368846339E-1   -9.501492411696978E1    -3.941002757865117E1    -1.414752958782521E2
 2.580140000000000E8    -4.202986559021932E1    -1.602606324442961E2    -1.123074877442714E-1   -9.515607199108774E1    -1.113506424447059E-1   -9.515052524346540E1    -3.933342008470510E1    -1.420623332472350E2
 2.583888750000000E8    -4.181889323496181E1    -1.593735507531267E2    -1.120887787667305E-1   -9.529169468294603E1    -1.114961781728378E-1   -9.529212044313374E1    -3.924308572030006E1    -1.422074861079107E2
 2.587637500000000E8    -4.166728772957615E1    -1.598383068433493E2    -1.115551708405236E-1   -9.543184073966081E1    -1.124848507268480E-1   -9.542894228060996E1    -3.920139737248258E1    -1.425106254345762E2
 2.591386250000000E8    -4.163352396075550E1    -1.599826856004410E2    -1.122045031444081E-1   -9.556981330903686E1    -1.130815983933568E-1   -9.556856921294312E1    -3.903082828531885E1    -1.430155671261732E2
 2.595135000000000E8    -4.162234481577204E1    -1.608868473695965E2    -1.117691968369877E-1   -9.570834842908886E1    -1.117343432856214E-1   -9.570754004307211E1    -3.903778041504361E1    -1.432212136829196E2
 2.598883750000000E8    -4.161598727225257E1    -1.611807755447566E2    -1.125627291336625E-1   -9.584850680596443E1    -1.118191961280739E-1   -9.584686276369030E1    -3.914613274468765E1    -1.431797033580670E2
 2.602632500000000E8    -4.159178810154628E1    -1.615298028680544E2    -1.124729635171654E-1   -9.598809415376765E1    -1.124414769609557E-1   -9.598414678981875E1    -3.916571171883986E1    -1.431145271117376E2
 2.606381250000000E8    -4.158904340077405E1    -1.614004057157060E2    -1.122568367158308E-1   -9.612635485930871E1    -1.127793266668872E-1   -9.612090614156097E1    -3.913715521602719E1    -1.432579082747553E2
 2.610130000000000E8    -4.156349996660640E1    -1.616528819912586E2    -1.128869874895825E-1   -9.626278154434050E1    -1.124468072381305E-1   -9.625789284749568E1    -3.907753765894014E1    -1.442196040311973E2
 2.613878750000000E8    -4.157274535740902E1    -1.623538437264241E2    -1.132163587601836E-1   -9.640147826788049E1    -1.129233977456160E-1   -9.639616200373297E1    -3.902927974688770E1    -1.446490703023779E2
 2.617627500000000E8    -4.151892523101017E1    -1.622935058845376E2    -1.132211805781389E-1   -9.653891622236075E1    -1.132225768877083E-1   -9.653689013130024E1    -3.903681443131548E1    -1.446134056803412E2
 2.621376250000000E8    -4.154630541941025E1    -1.624764795374633E2    -1.134901842131224E-1   -9.667645050099327E1    -1.134837010613832E-1   -9.667322986121577E1    -3.897928411089004E1    -1.448455862281644E2
 2.625125000000000E8    -4.145850472484263E1    -1.635206456722827E2    -1.135310548493380E-1   -9.681376540128007E1    -1.136766092747094E-1   -9.680779014169430E1    -3.899325490470893E1    -1.455480740650295E2
 2.628873750000000E8    -4.153237908932519E1    -1.641269955409153E2    -1.131258144856244E-1   -9.694715163805928E1    -1.134697269199319E-1   -9.694665690670747E1    -3.907198897993909E1    -1.464492808157593E2
 2.632622500000000E8    -4.150172802967245E1    -1.644500807524294E2    -1.132473028985080E-1   -9.709095960636226E1    -1.130032528790261E-1   -9.708337389110021E1    -3.909916719929173E1    -1.469375382078848E2
 2.636371250000000E8    -4.139520141754338E1    -1.643874980382035E2    -1.131359955991061E-1   -9.722751216650181E1    -1.137920100793829E-1   -9.722336589282088E1    -3.897507376699649E1    -1.467207431216341E2
 2.640120000000000E8    -4.127212715742171E1    -1.653330078579760E2    -1.125013977381835E-1   -9.736612703422880E1    -1.143844194965382E-1   -9.736058991813096E1    -3.893899298429346E1    -1.469772279562351E2
 2.643868750000000E8    -4.136149051682526E1    -1.652350672069460E2    -1.127747341985979E-1   -9.750374433034436E1    -1.139639549629809E-1   -9.749842678059568E1    -3.899454883151810E1    -1.469446917509057E2
 2.647617500000000E8    -4.131132054863303E1    -1.658920307407666E2    -1.137119535366873E-1   -9.764070014204304E1    -1.130114211177757E-1   -9.763551810722333E1    -3.889223750424208E1    -1.468357041219815E2
 2.651366250000000E8    -4.124646383127386E1    -1.660817109881858E2    -1.130185682077647E-1   -9.777533291348945E1    -1.132386385855648E-1   -9.777340640662327E1    -3.898640886912249E1    -1.476842819170074E2
 2.655115000000000E8    -4.110886489562645E1    -1.660091386761656E2    -1.132553810569053E-1   -9.791318087479432E1    -1.136590187974532E-1   -9.791017464220778E1    -3.892794484901805E1    -1.476914999388649E2
 2.658863750000000E8    -4.114841228417881E1    -1.665117265098635E2    -1.129934080257589E-1   -9.805223748058854E1    -1.148101665420992E-1   -9.804543316729689E1    -3.894998150491806E1    -1.480325785990352E2
 2.662612500000000E8    -4.120029318720682E1    -1.662004581815307E2    -1.135928627655929E-1   -9.818859576419672E1    -1.144250408542823E-1   -9.818573038128744E1    -3.889819464278994E1    -1.478911447336520E2
 2.666361250000000E8    -4.119010337264235E1    -1.677746937248068E2    -1.134151728766412E-1   -9.833124895749117E1    -1.136395290021688E-1   -9.832563708328989E1    -3.890139865123870E1    -1.484999703191394E2
 2.670110000000000E8    -4.120282817771182E1    -1.677400787077032E2    -1.129963231509280E-1   -9.846711918647897E1    -1.134413669739266E-1   -9.846812938801867E1    -3.893720950734397E1    -1.488526514160596E2
 2.673858750000000E8    -4.118829609654944E1    -1.679893574156597E2    -1.127938914678755E-1   -9.860840822204561E1    -1.140611003909941E-1   -9.860380685746898E1    -3.894388674576395E1    -1.488947734674643E2
 2.677607500000000E8    -4.110299694868860E1    -1.683016559985799E2    -1.142692785524519E-1   -9.874472977974932E1    -1.141450534077562E-1   -9.874116289030458E1    -3.874247472782271E1    -1.491829839893130E2
 2.681356250000000E8    -4.115417370603754E1    -1.688660279721428E2    -1.136866385082489E-1   -9.887984696185083E1    -1.143390376482200E-1   -9.887807409777366E1    -3.880340660709134E1    -1.497880806123708E2
 2.685105000000000E8    -4.101949767239432E1    -1.688769500909815E2    -1.130650660594107E-1   -9.901667038954318E1    -1.141772674497060E-1   -9.901637997127685E1    -3.879404932553684E1    -1.501299409853923E2
 2.688853750000000E8    -4.095427634974992E1    -1.692834314673911E2    -1.133652894324383E-1   -9.915432757675045E1    -1.144205602224437E-1   -9.915474782074990E1    -3.871891355888005E1    -1.508575765561697E2
 2.692602500000000E8    -4.098930416433732E1    -1.691357723777242E2    -1.147949835604549E-1   -9.929242358037337E1    -1.143339083954412E-1   -9.929071260629144E1    -3.870694922171656E1    -1.506138819614936E2
 2.696351250000000E8    -4.101303060058178E1    -1.694774790818297E2    -1.149293435298558E-1   -9.943092044028241E1    -1.154566138741310E-1   -9.942701136448913E1    -3.875651286046577E1    -1.511625190893408E2
 2.700100000000000E8    -4.093484193419368E1    -1.700922411765023E2    -1.148070556990500E-1   -9.956883897559244E1    -1.155309731072695E-1   -9.956593742995987E1    -3.885409578106341E1    -1.511377497257521E2
 2.703848750000000E8    -4.097845098303950E1    -1.700329238682230E2    -1.139439223331378E-1   -9.970728407039449E1    -1.156077674756182E-1   -9.970491393585212E1    -3.875467598456534E1    -1.517989207369296E2
 2.707597500000000E8    -4.086474342038268E1    -1.702407783433702E2    -1.139389859780867E-1   -9.984380700600047E1    -1.156075409073601E-1   -9.984252253279475E1    -3.879851048408692E1    -1.519041032098679E2
 2.711346250000000E8    -4.082010734244498E1    -1.710114621248484E2    -1.145832379355992E-1   -9.998126909696228E1    -1.154310546017829E-1   -9.998058971310454E1    -3.877069136130046E1    -1.520683293906384E2
 2.715095000000000E8    -4.076273233347898E1    -1.706259356090253E2    -1.149282601408904E-1   -1.001176100133628E2    -1.159399701992695E-1   -1.001181933604980E2    -3.868214034782066E1    -1.524302734982344E2
 2.718843750000000E8    -4.070172930535450E1    -1.704883933974942E2    -1.146167443590175E-1   -1.002576707421158E2    -1.154870627115488E-1   -1.002553558306878E2    -3.866490254731971E1    -1.533263105259450E2
 2.722592500000000E8    -4.068420313091423E1    -1.715392234085869E2    -1.141118272076845E-1   -1.003952029845740E2    -1.151998835046052E-1   -1.003938748983624E2    -3.869852584151596E1    -1.536601887252978E2
 2.726341250000000E8    -4.073099743704795E1    -1.719873360187796E2    -1.148971568490237E-1   -1.005305910113464E2    -1.155703245184082E-1   -1.005314628771423E2    -3.857531883838777E1    -1.536310159192407E2
 2.730090000000000E8    -4.075520870825838E1    -1.722157997195191E2    -1.149553402160833E-1   -1.006675905344774E2    -1.158332130710584E-1   -1.006705819631684E2    -3.861203587468105E1    -1.543920981804315E2
 2.733838750000000E8    -4.065401326855181E1    -1.724714050774534E2    -1.148808746815847E-1   -1.008079126135325E2    -1.156009926309233E-1   -1.008102106660650E2    -3.861050001935226E1    -1.547588414704684E2
 2.737587500000000E8    -4.052531165023618E1    -1.730184940627728E2    -1.151809435803086E-1   -1.009459853833701E2    -1.154843512149204E-1   -1.009471082535288E2    -3.863258037165698E1    -1.546527427965181E2
 2.741336250000000E8    -4.052015651214320E1    -1.724011046411672E2    -1.152029419014430E-1   -1.010861569248409E2    -1.150789411254771E-1   -1.010829671900217E2    -3.848534718731440E1    -1.547398989675499E2
 2.745085000000000E8    -4.049127500002268E1    -1.734192831087858E2    -1.145275078607279E-1   -1.012216152351132E2    -1.163382475072745E-1   -1.012203724321814E2    -3.843337498706332E1    -1.548182565650917E2
 2.748833750000000E8    -4.050263037325188E1    -1.737171224039354E2    -1.156080655207278E-1   -1.013585050733982E2    -1.155083156396447E-1   -1.013581831905463E2    -3.841682667576463E1    -1.554843152596555E2
 2.752582500000000E8    -4.054185443505054E1    -1.748027255649830E2    -1.147985349164785E-1   -1.014956984521548E2    -1.157054978662133E-1   -1.014965563357402E2    -3.850218302501857E1    -1.559179092101249E2
 2.756331250000000E8    -4.045725542816416E1    -1.747569547150248E2    -1.148731540251736E-1   -1.016350769895709E2    -1.151793691048180E-1   -1.016352302473482E2    -3.844528552060002E1    -1.558229927143097E2
 2.760080000000000E8    -4.045842372319429E1    -1.746014937495796E2    -1.138796262401039E-1   -1.017701398626055E2    -1.152721997121631E-1   -1.017701418757564E2    -3.851317806785923E1    -1.557582545574501E2
 2.763828750000000E8    -4.048195948249570E1    -1.748450267142167E2    -1.154079306150970E-1   -1.019085717426408E2    -1.153411758091080E-1   -1.019085810925896E2    -3.852964431634953E1    -1.565627151751930E2
 2.767577500000000E8    -4.030341913071312E1    -1.752336276890103E2    -1.151213656341430E-1   -1.020460998543579E2    -1.161907558484400E-1   -1.020510817785883E2    -3.845714933846613E1    -1.575575330815907E2
 2.771326250000000E8    -4.017969302096603E1    -1.752818940026391E2    -1.155100503861452E-1   -1.021888729005584E2    -1.168063284586635E-1   -1.021883286159110E2    -3.837947735851258E1    -1.577674214942403E2
 2.775075000000000E8    -4.023124856841313E1    -1.755257446028729E2    -1.158284619591989E-1   -1.023228627917370E2    -1.160158794867825E-1   -1.023241243018886E2    -3.831846448355822E1    -1.575164474340521E2
 2.778823750000000E8    -4.014283428216952E1    -1.750116118838651E2    -1.145559961200110E-1   -1.024614214185302E2    -1.158983108810522E-1   -1.024603948395773E2    -3.824032075164374E1    -1.583285800652205E2
 2.782572500000000E8    -4.006983665972832E1    -1.756878996637258E2    -1.155908827467656E-1   -1.025957566583501E2    -1.155949826805030E-1   -1.025952575321934E2    -3.827665828086324E1    -1.585384313993513E2
 2.786321250000000E8    -4.003360540424700E1    -1.762591833387908E2    -1.159994325966086E-1   -1.027392628907360E2    -1.159040246853357E-1   -1.027355893451129E2    -3.833648646786634E1    -1.587770787222453E2
 2.790070000000000E8    -4.002599194539442E1    -1.769206534987645E2    -1.163413277647139E-1   -1.028815700650500E2    -1.162677737741297E-1   -1.028795458590037E2    -3.821976364052749E1    -1.592944811090167E2
 2.793818750000000E8    -3.997583953110934E1    -1.771549497532228E2    -1.154356486094468E-1   -1.030154401230339E2    -1.165607998527586E-1   -1.030180628265788E2    -3.830620790585525E1    -1.591097302299854E2
 2.797567500000000E8    -3.987308384399495E1    -1.777359041923450E2    -1.161003148399956E-1   -1.031529134108136E2    -1.152892262230070E-1   -1.031510041901413E2    -3.823715658630952E1    -1.596323578613959E2
 2.801316250000000E8    -3.987295389514270E1    -1.773862804599937E2    -1.155658426820770E-1   -1.032909508153268E2    -1.158408404095279E-1   -1.032906676303729E2    -3.823076696618022E1    -1.603823051833034E2
 2.805065000000000E8    -3.991020213102701E1    -1.782004277636492E2    -1.159486918158355E-1   -1.034274220011021E2    -1.154269332080276E-1   -1.034253734151910E2    -3.824558472845088E1    -1.608873230238547E2
 2.808813750000000E8    -3.978700467758349E1    -1.785203649940955E2    -1.158977194549265E-1   -1.035655356531819E2    -1.154402464969108E-1   -1.035666017608190E2    -3.828604274840139E1    -1.612850039295112E2
 2.812562500000000E8    -3.986132080786059E1    -1.786606726463183E2    -1.154470345854091E-1   -1.037045631212107E2    -1.167599469587374E-1   -1.037031956724218E2    -3.819086601823624E1    -1.613001070581494E2
 2.816311250000000E8    -3.985811795961351E1    -1.788449387545949E2    -1.152608238459134E-1   -1.038436747476748E2    -1.169745176671754E-1   -1.038404130922867E2    -3.811330094004136E1    -1.615904768973273E2
 2.820060000000000E8    -3.983893432269982E1    -1.788203190815235E2    -1.158150121409300E-1   -1.039814550591033E2    -1.165770978665155E-1   -1.039807992525683E2    -3.812854654912871E1    -1.618673043759571E2
 2.823808750000000E8    -3.978913001171465E1    -1.792320085259055E2    -1.157459630739515E-1   -1.041227366847895E2    -1.166650579418717E-1   -1.041212104106152E2    -3.815804081879796E1    -1.621067154185462E2
 2.827557500000000E8    -3.971107593151758E1     1.794716802495996E2    -1.164573086541294E-1   -1.042577757585229E2    -1.166448074281678E-1   -1.042570126897907E2    -3.820735710472646E1    -1.625532493469249E2
 2.831306250000000E8    -3.954784292172897E1     1.795459416250806E2    -1.165062161108638E-1   -1.043969553938203E2    -1.174910474544585E-1   -1.043959964788622E2    -3.822052002004709E1    -1.625649312278130E2
 2.835055000000000E8    -3.960019802364303E1     1.790001056937571E2    -1.168754279922549E-1   -1.045333124201067E2    -1.171127538500443E-1   -1.045358216869565E2    -3.813410159317389E1    -1.631003241763964E2
 2.838803750000000E8    -3.958941959059536E1     1.793359820288393E2    -1.182761131517862E-1   -1.046702779120232E2    -1.176518224769623E-1   -1.046719254281619E2    -3.801603683672845E1    -1.633260951172893E2
 2.842552500000000E8    -3.957539482809236E1     1.786089317975660E2    -1.175241929303008E-1   -1.048045695237994E2    -1.174432564350086E-1   -1.048084529457089E2    -3.806594119959581E1    -1.638304584104464E2
 2.846301250000000E8    -3.946049579313325E1     1.782695900742023E2    -1.163605155967455E-1   -1.049447545291796E2    -1.179702079443795E-1   -1.049451827428013E2    -3.806308883282816E1    -1.644157689850600E2
 2.850050000000000E8    -3.952309971979656E1     1.777593180977628E2    -1.162603867000366E-1   -1.050813685330023E2    -1.174451859413105E-1   -1.050841142284833E2    -3.804723414123944E1    -1.647674688194595E2
 2.853798750000000E8    -3.941276019880910E1     1.772528308485555E2    -1.167777895610176E-1   -1.052201706368741E2    -1.172176876266300E-1   -1.052195782406145E2    -3.799512558850744E1    -1.651915723976057E2
 2.857547500000000E8    -3.940487751728040E1     1.773393602485468E2    -1.178922168440331E-1   -1.053573021933804E2    -1.170485825965779E-1   -1.053581389212861E2    -3.795879534456518E1    -1.651436141295201E2
 2.861296250000000E8    -3.934667295783522E1     1.770957928959887E2    -1.178517726966617E-1   -1.054973024660508E2    -1.182484366439494E-1   -1.054906844171741E2    -3.800650579474760E1    -1.653273603851649E2
 2.865045000000000E8    -3.932296847009701E1     1.767025442362215E2    -1.178111681760466E-1   -1.056315021623476E2    -1.178920228526443E-1   -1.056325575209637E2    -3.795449858090382E1    -1.662057763779223E2
 2.868793750000000E8    -3.936505655795065E1     1.768608580921974E2    -1.174200770420063E-1   -1.057682202885412E2    -1.184782953324597E-1   -1.057667773760224E2    -3.792094925330158E1    -1.662277623293894E2
 2.872542500000000E8    -3.933418332397603E1     1.760912038177198E2    -1.178482339217407E-1   -1.059063285756019E2    -1.183457192298517E-1   -1.059070880782667E2    -3.789238713111554E1    -1.661829273492778E2
 2.876291250000000E8    -3.931520101740445E1     1.763234417018998E2    -1.178337343632856E-1   -1.060455328237813E2    -1.177781013531469E-1   -1.060490925265803E2    -3.792623493959204E1    -1.665917742766264E2
 2.880040000000000E8    -3.928558209956430E1     1.760157233789467E2    -1.177133582698156E-1   -1.061835999473174E2    -1.172066944768956E-1   -1.061846408408963E2    -3.794804549330763E1    -1.667551023857228E2
 2.883788750000000E8    -3.925241795361182E1     1.757542454969024E2    -1.177712432720816E-1   -1.063220128849847E2    -1.184198879147056E-1   -1.063233140507096E2    -3.787099743955148E1    -1.672769521588156E2
 2.887537500000000E8    -3.919674102677667E1     1.759311932147605E2    -1.180430888816711E-1   -1.064587454508077E2    -1.188177074202950E-1   -1.064610528705855E2    -3.790456912462381E1    -1.674920849186127E2
 2.891286250000000E8    -3.917189473764204E1     1.757523613422640E2    -1.182128090381250E-1   -1.065981602818767E2    -1.182189596946113E-1   -1.066036794771275E2    -3.773387513755662E1    -1.675854972285254E2
 2.895035000000000E8    -3.911862496680402E1     1.750607312002840E2    -1.177618570406869E-1   -1.067348957515711E2    -1.179995475963008E-1   -1.067404553194355E2    -3.768028664832212E1    -1.684472090555677E2
 2.898783750000000E8    -3.913082053673948E1     1.749596857412495E2    -1.183663299626430E-1   -1.068777262809150E2    -1.187519046526402E-1   -1.068752464070705E2    -3.776012771848250E1    -1.683112961046132E2
 2.902532500000000E8    -3.911094762525381E1     1.750015916541909E2    -1.185306972904768E-1   -1.070108570708177E2    -1.188496091470655E-1   -1.070169102680973E2    -3.777774300267371E1    -1.683599081463798E2
 2.906281250000000E8    -3.903640178249488E1     1.743880272963011E2    -1.182690637167403E-1   -1.071497137881136E2    -1.185472657405251E-1   -1.071528493113340E2    -3.771662211744265E1    -1.692875096521195E2
 2.910030000000000E8    -3.903808207226945E1     1.743068526487043E2    -1.188558516151798E-1   -1.072860475382311E2    -1.191244210159820E-1   -1.072925662964149E2    -3.765888176537283E1    -1.694479161221924E2
 2.913778750000000E8    -3.895370272577364E1     1.741535135906769E2    -1.190896712618709E-1   -1.074273477153715E2    -1.183251549653399E-1   -1.074305998658188E2    -3.765321467931967E1    -1.697147925052651E2
 2.917527500000000E8    -3.888112748999481E1     1.740831260323772E2    -1.182778514098501E-1   -1.075701576906946E2    -1.187524336054328E-1   -1.075668583671442E2    -3.766527403540118E1    -1.703349499969672E2
 2.921276250000000E8    -3.886469819998688E1     1.742381645648776E2    -1.181544634349164E-1   -1.077046195143831E2    -1.188152125904609E-1   -1.077063309284249E2    -3.767382385181519E1    -1.703426243738337E2
 2.925025000000000E8    -3.879909969093063E1     1.733733724178758E2    -1.177461549707177E-1   -1.078417045186675E2    -1.192119439884467E-1   -1.078439213496509E2    -3.766494275289093E1    -1.707653329898091E2
 2.928773750000000E8    -3.875511698739459E1     1.732947724770743E2    -1.180066572943068E-1   -1.079812689172762E2    -1.187364536046375E-1   -1.079814185587267E2    -3.765846496055027E1    -1.709023341324958E2
 2.932522500000000E8    -3.885005138369714E1     1.726582185734301E2    -1.182787130091803E-1   -1.081193907281839E2    -1.189389142086150E-1   -1.081196885675723E2    -3.762828963394556E1    -1.711904466872249E2
 2.936271250000000E8    -3.880634334885249E1     1.719825531606363E2    -1.188180609670497E-1   -1.082538553834011E2    -1.192596964736454E-1   -1.082562973478436E2    -3.764084495907316E1    -1.719703470857434E2
 2.940020000000000E8    -3.874854431283134E1     1.719497757838955E2    -1.191071655560302E-1   -1.083923759297964E2    -1.189323244997566E-1   -1.083942442962129E2    -3.757341193851136E1    -1.724849770568383E2
 2.943768750000000E8    -3.865645881509983E1     1.714949544184101E2    -1.191353888729246E-1   -1.085292768400841E2    -1.196633402192561E-1   -1.085285576671497E2    -3.757757375669661E1    -1.730167304480102E2
 2.947517500000000E8    -3.867848159202976E1     1.715639485118672E2    -1.191530693076337E-1   -1.086651289228895E2    -1.197289347236804E-1   -1.086668827706628E2    -3.757331034471913E1    -1.731826079432300E2
 2.951266250000000E8    -3.860692703111981E1     1.713854445852704E2    -1.188802187804923E-1   -1.087989905130044E2    -1.196973088986800E-1   -1.088025691757901E2    -3.755448077899736E1    -1.737053711927366E2
 2.955015000000000E8    -3.858178558220944E1     1.705496203592353E2    -1.187921819260594E-1   -1.089400546055135E2    -1.193153043034269E-1   -1.089377937417305E2    -3.754736796645047E1    -1.739240699510320E2
 2.958763750000000E8    -3.859909676665674E1     1.709544263540901E2    -1.189781383748344E-1   -1.090778873535050E2    -1.195440300260164E-1   -1.090774496086807E2    -3.760620467774999E1    -1.741924646320787E2
 2.962512500000000E8    -3.858432260534676E1     1.702414195100242E2    -1.188678089567458E-1   -1.092160161023062E2    -1.197733479468496E-1   -1.092167402540346E2    -3.746211149815363E1    -1.742410068206248E2
 2.966261250000000E8    -3.851674571424068E1     1.704231688609635E2    -1.189667333110370E-1   -1.093536240297228E2    -1.201047578453762E-1   -1.093543606598784E2    -3.749991056620458E1    -1.742726219012895E2
 2.970010000000000E8    -3.858910362322929E1     1.705050393455628E2    -1.200803676795671E-1   -1.094922350884926E2    -1.188002364839263E-1   -1.094886110047699E2    -3.752717735192644E1    -1.745642227863734E2
 2.973758750000000E8    -3.854888531644866E1     1.699481524822474E2    -1.195028752711377E-1   -1.096260704607405E2    -1.192404913953916E-1   -1.096282627064828E2    -3.755248025845021E1    -1.748633645583298E2
 2.977507500000000E8    -3.847396363685359E1     1.696246391098339E2    -1.196066178349760E-1   -1.097669083622508E2    -1.197999525226412E-1   -1.097674804826751E2    -3.733262091437479E1    -1.747913453032212E2
 2.981256250000000E8    -3.841841189394703E1     1.693256489756641E2    -1.202471168751279E-1   -1.099060565645051E2    -1.203588456347584E-1   -1.099043539279359E2    -3.739943534076409E1    -1.753882722252619E2
 2.985005000000000E8    -3.852881581626975E1     1.687967731016189E2    -1.191996917415119E-1   -1.100438198017714E2    -1.203765436549834E-1   -1.100434920326486E2    -3.731146311657223E1    -1.757385752934964E2
 2.988753750000000E8    -3.855147589783829E1     1.690448037814157E2    -1.202660579600776E-1   -1.101817951242951E2    -1.202824054866422E-1   -1.101841537387909E2    -3.740061917488995E1    -1.760524957355186E2
 2.992502500000000E8    -3.833112240487908E1     1.687102176835438E2    -1.204633373964559E-1   -1.103225324059778E2    -1.207288459650838E-1   -1.103213237944075E2    -3.736089918291885E1    -1.762201600513611E2
 2.996251250000000E8    -3.827668235404336E1     1.683222692870509E2    -1.201846650095709E-1   -1.104577073789987E2    -1.203477867698707E-1   -1.104571393799209E2    -3.732676592560676E1    -1.764223117239467E2
 3.000000000000000E8    -3.822620735871894E1     1.677853297647147E2    -1.200175152645520E-1   -1.105909031966590E2    -1.209416625070158E-1   -1.105966702680156E2    -3.725377649009098E1    -1.765172657254581E2
