#  HZ   S   DB   R     50.00 
! Rohde & Schwarz Vector Network Analyzer 
! Rohde-Schwarz,ZND-2Port,1328517092102334,3.45
! Created: UTC 3/30/2026, 5:37:28 AM
! freq[Hz]                db:S11                  ang:S11                 db:S21                  ang:S21                 db:S12                  ang:S12                 db:S22                  ang:S22
 1.000000000000000E5    -3.103183250041894E1     1.002122387748601E2     2.304988216279735E-2   -1.342117634081740       3.240971310870938E-2   -1.447063270399682      -3.024138906620930E1     9.376805229900054E1
 4.748750000000000E5    -4.260209302424354E1     8.133227560712153E1    -1.141250201341131E-2   -4.733894166743042E-1   -6.064272153509702E-3   -4.951162196101103E-1   -4.330749127685782E1     7.377588665339337E1
 8.497500000000000E5    -4.769163301666783E1     6.584659329824969E1    -1.817055093655132E-2   -4.005389446814029E-1   -1.177642994128383E-2   -4.042274953285785E-1   -4.743057253851499E1     5.624032153939911E1
 1.224625000000000E6    -5.105762053654628E1     6.521104969203108E1    -1.607344911071521E-2   -4.124131222057665E-1   -9.795625342845062E-3   -4.192230072747481E-1   -4.991056036995703E1     4.749165926716961E1
 1.599500000000000E6    -4.993339479978638E1     6.289079971682405E1    -1.463079072377344E-2   -4.989211807023065E-1   -7.476625692452627E-3   -5.012192653408182E-1   -5.020391763010131E1     5.339770629090228E1
 1.974375000000000E6    -5.219500083177850E1     4.657929435242216E1    -1.696544482389107E-2   -5.245343118345410E-1   -1.043296825132162E-2   -5.276059147307435E-1   -5.119165621500137E1     4.288660203727227E1
 2.349250000000000E6    -5.426041971270799E1     5.089206219517143E1    -1.457029028427230E-2   -5.780525819761995E-1   -8.343705734684261E-3   -5.769371145272043E-1   -5.179666070070227E1     3.896431097742612E1
 2.724125000000000E6    -5.227460580632338E1     5.203110334318375E1    -1.797751575389298E-2   -6.579185178126989E-1   -1.062329007300981E-2   -6.599371733106070E-1   -5.074279664087378E1     3.417113963516827E1
 3.099000000000000E6    -5.138604922550360E1     5.019354169736069E1    -1.792694525750354E-2   -7.360886499270369E-1   -1.217747005795940E-2   -7.380064326413889E-1   -5.127027928058347E1     3.781982999860988E1
 3.473875000000000E6    -5.177284745260260E1     4.619027791414288E1    -1.978691513131496E-2   -8.036178512727901E-1   -1.321457859853473E-2   -8.083449137645125E-1   -5.060780443186162E1     2.816107590039514E1
 3.848750000000000E6    -5.151105330891188E1     4.315808928756270E1    -2.080570238674674E-2   -8.742171560465481E-1   -1.451731742172269E-2   -8.789814699953972E-1   -5.075270429735235E1     3.019714048748566E1
 4.223625000000000E6    -5.105698749098987E1     3.514819298449001E1    -2.232693280997265E-2   -9.408516143651892E-1   -1.655942879202205E-2   -9.437418976795920E-1   -4.974736003828347E1     2.242867081706135E1
 4.598500000000000E6    -5.095320363382724E1     2.785906566738599E1    -2.369385883324788E-2   -1.013100484554031      -1.819953438175360E-2   -1.014123752591698      -5.005512983723898E1     2.312275633254878E1
 4.973375000000000E6    -5.068645706280268E1     2.697449070563787E1    -2.504823615265019E-2   -1.087056375830824      -1.866148619584103E-2   -1.092021211003460      -4.989192455240951E1     2.394043604050454E1
 5.348250000000000E6    -5.037668247422484E1     2.542401188237963E1    -2.656079158629039E-2   -1.155290701448821      -1.985483472959935E-2   -1.159537502565436      -5.004079305920472E1     1.940181024321858E1
 5.723125000000000E6    -5.006793292200320E1     2.289366329332353E1    -2.640780297517241E-2   -1.236916999424093      -2.123080634089635E-2   -1.239032086801039      -4.973061043998111E1     1.759747739371462E1
 6.098000000000000E6    -4.991488855649432E1     1.740027813326913E1    -2.856471359461913E-2   -1.304103292929580      -2.170793433194915E-2   -1.310581344492515      -4.923015038201743E1     1.683043316988040E1
 6.472875000000000E6    -5.014167638804270E1     1.654196869650458E1    -2.935260122608787E-2   -1.371613856546196      -2.272681769536872E-2   -1.378668455621714      -4.874461713745036E1     1.655703107145128E1
 6.847750000000000E6    -5.011015905016916E1     1.908508106617168E1    -2.919544694191420E-2   -1.442971386596582      -2.342666012340339E-2   -1.451619634734765      -4.906762290982306E1     1.058736973622733E1
 7.222625000000000E6    -5.004549171872640E1     1.420063909553875E1    -3.022995345984114E-2   -1.520267380814080      -2.464713744572297E-2   -1.528434138672951      -4.845754957427150E1     1.329015944966942E1
 7.597500000000000E6    -4.932016494059405E1     1.751544791889506E1    -2.988416825502643E-2   -1.602489220105804      -2.413738750424513E-2   -1.604496602152946      -4.816566997976498E1     1.314787163155054E1
 7.972375000000000E6    -4.958615127402724E1     1.931474389926838E1    -2.993644008439311E-2   -1.670740518813002      -2.556745038208053E-2   -1.676937474664303      -4.838800707828643E1     9.121733069056681
 8.347250000000000E6    -4.923968929857067E1     1.752826945838724E1    -3.174268889637239E-2   -1.753235236369200      -2.639157531026419E-2   -1.760832044327123      -4.836022653511242E1     1.285383371255647E1
 8.722125000000000E6    -4.918990626695918E1     1.900562578351239E1    -3.105671127283262E-2   -1.832606711683841      -2.572576822482288E-2   -1.836082318028392      -4.808033351681682E1     7.801487055780846
 9.097000000000000E6    -4.892609223536446E1     1.550954733270667E1    -3.002004245375233E-2   -1.905628496677256      -2.422010383818907E-2   -1.909895944784636      -4.837098398219722E1     1.192278847813802E1
 9.471875000000000E6    -4.905653004765291E1     1.925702619760776E1    -2.991935378212632E-2   -1.977947763631742      -2.563421719453789E-2   -1.988956533933179      -4.847880360573712E1     1.301825191656608E1
 9.846750000000000E6    -4.936353275289299E1     1.398201806689834E1    -2.935440995740920E-2   -2.053866211892535      -2.579259620019813E-2   -2.063119106331777      -4.873127792633247E1     1.269559748785438E1
 1.022162500000000E7    -5.001603648383618E1     2.332272118392262E1    -2.729652914245670E-2   -2.133388871108056      -2.252072876197905E-2   -2.147117238517303      -5.053512637962982E1     1.336321893512154E1
 1.059650000000000E7    -5.002905569690074E1     2.175945087562314E1    -2.757112595704084E-2   -2.210494725463404      -2.308578344689192E-2   -2.220209479245536      -4.997068181740979E1     1.213157673125362E1
 1.097137500000000E7    -4.967110617715581E1     1.762536961662851E1    -2.711614515089698E-2   -2.291136246305645      -2.420398601747203E-2   -2.298319574770238      -4.982614406003112E1     1.494975718399425E1
 1.134625000000000E7    -4.972229514101707E1     1.941664187464819E1    -2.736648694284209E-2   -2.369233744998957      -2.445500032384612E-2   -2.373215781042452      -4.933674143258586E1     1.325243720951176E1
 1.172112500000000E7    -4.945300966515666E1     2.140355512701284E1    -2.838165414399373E-2   -2.446188249276644      -2.522290788303055E-2   -2.450580358407805      -4.951276590760959E1     1.570186471750850E1
 1.209600000000000E7    -4.944908250607170E1     2.175485906180352E1    -2.916990986639060E-2   -2.522764302309978      -2.605347126707209E-2   -2.528677887474865      -4.939569534771511E1     1.361550207829196E1
 1.247087500000000E7    -4.943812509854609E1     2.121709151249584E1    -3.002020222261905E-2   -2.602451149124664      -2.527557608807576E-2   -2.603624540821188      -4.889288720480322E1     1.331831115409906E1
 1.284575000000000E7    -4.899587029468172E1     2.308319200490907E1    -2.960644648724549E-2   -2.676185757425839      -2.601043357842332E-2   -2.680637238864918      -4.883701975195122E1     1.219362393316426E1
 1.322062500000000E7    -4.905675003776180E1     2.311128009887676E1    -2.943126443124367E-2   -2.751316465866031      -2.587594585763628E-2   -2.757185098364983      -4.871221813747168E1     1.217170168126717E1
 1.359550000000000E7    -4.874496750985325E1     2.368483124449283E1    -3.036659831742499E-2   -2.831716622867944      -2.564161557652159E-2   -2.839300996028205      -4.847697661790274E1     1.139462514561775E1
 1.397037500000000E7    -4.822987612966425E1     2.235476707316901E1    -3.076731617156637E-2   -2.906227747794204      -2.621360380963813E-2   -2.918778616195808      -4.850941833095673E1     1.190471737925209E1
 1.434525000000000E7    -4.835956946430491E1     2.215112396141443E1    -3.147782714485853E-2   -2.983167900611811      -2.788281359943475E-2   -2.993160375589051      -4.819698516272140E1     1.074210855984137E1
 1.472012500000000E7    -4.820311334746614E1     2.399510443032715E1    -3.128272792594602E-2   -3.063357710801499      -2.750919003041597E-2   -3.074934250767137      -4.804026029283448E1     1.234268954564895E1
 1.509500000000000E7    -4.826299791291678E1     2.368246018357805E1    -3.173639498126522E-2   -3.139745189741570      -2.896165886095398E-2   -3.152946842120127      -4.799113030586121E1     1.370140906695926E1
 1.546987500000000E7    -4.799774555570450E1     2.179809770717605E1    -3.232868289319200E-2   -3.217866479484314      -2.884565980208707E-2   -3.226261251499676      -4.797760011920322E1     1.557474715159833E1
 1.584475000000000E7    -4.776305937058829E1     2.180888253884449E1    -3.184922218503859E-2   -3.290776006678700      -2.892896541784413E-2   -3.303379252774493      -4.822380345403950E1     1.407692717290713E1
 1.621962500000000E7    -4.741868083528185E1     1.955764774870595E1    -3.225239981172040E-2   -3.372511609966567      -2.927399754693648E-2   -3.378244999274041      -4.821930013409556E1     1.588952589564800E1
 1.659450000000000E7    -4.715732860493717E1     1.937518259276232E1    -3.288880853083197E-2   -3.451199126744692      -2.889815658927776E-2   -3.460252702478418      -4.843779621861383E1     1.538520355128472E1
 1.696937500000000E7    -4.704736249584642E1     1.939325460036422E1    -3.397781546202032E-2   -3.530534777682676      -2.953129817792104E-2   -3.540003625775081      -4.810329153699776E1     1.380980209363011E1
 1.734425000000000E7    -4.711058141563055E1     2.026878470762550E1    -3.321291969093468E-2   -3.608213133828743      -2.999458317928001E-2   -3.616302229439583      -4.813893995043185E1     1.442109356192865E1
 1.771912500000000E7    -4.701653940275491E1     2.179938817351239E1    -3.416924656209987E-2   -3.680342468144384      -2.971519900621063E-2   -3.694687508463353      -4.811888781934609E1     1.277005652372620E1
 1.809400000000000E7    -4.709410043631158E1     2.133317540921111E1    -3.471758546756221E-2   -3.757899423778678      -3.024313900743440E-2   -3.774441735684101      -4.786633456706349E1     1.157336069322590E1
 1.846887500000000E7    -4.700503087687129E1     2.042356722019165E1    -3.439400451987439E-2   -3.836390810041826      -3.042302760849653E-2   -3.854179285890461      -4.753998623732816E1     1.413881970290037E1
 1.884375000000000E7    -4.713966407165663E1     1.959559796125867E1    -3.567115561023412E-2   -3.911505704598776      -3.177789447339160E-2   -3.926664404695092      -4.730850210917050E1     1.339534183547428E1
 1.921862500000000E7    -4.691074159875194E1     1.943951099888489E1    -3.603733228121871E-2   -3.986952028040169      -3.208596867268595E-2   -4.006913678708976      -4.750301407483703E1     1.438841292487856E1
 1.959350000000000E7    -4.663080614394229E1     1.835413763765496E1    -3.631164307688443E-2   -4.060755694043920      -3.301010385773152E-2   -4.079463415199629      -4.746140911770597E1     1.360674804465953E1
 1.996837500000000E7    -4.639541107587186E1     2.046939902161091E1    -3.585760935003993E-2   -4.129788403187604      -3.363911993930876E-2   -4.158593314583024      -4.749786617137375E1     1.233468056509501E1
 2.034325000000000E7    -4.621706910811370E1     2.016007841096202E1    -3.736498034972013E-2   -4.211691803913986      -3.315131126880626E-2   -4.231770551544892      -4.737377203011565E1     1.271826700656686E1
 2.071812500000000E7    -4.609073580341572E1     1.917223176868336E1    -3.643095352821780E-2   -4.293336342201402      -3.467805502695242E-2   -4.310903992772586      -4.708224516046450E1     1.195695178051445E1
 2.109300000000000E7    -4.583326275174316E1     1.904667373080168E1    -3.866542502554657E-2   -4.374738073108719      -3.616335519406606E-2   -4.385437029017108      -4.690240856541631E1     1.267578361216082E1
 2.146787500000000E7    -4.585018828856519E1     1.815105903137102E1    -3.850669762023731E-2   -4.456785455504698      -3.608502342742539E-2   -4.459528189391266      -4.673185742901873E1     1.357047426344963E1
 2.184275000000000E7    -4.582424822336562E1     1.742299700544977E1    -3.883187425790048E-2   -4.528896671404005      -3.656191045065627E-2   -4.544037182649524      -4.652196268155156E1     1.341808695341659E1
 2.221762500000000E7    -4.575800784449525E1     1.627352301888379E1    -3.878318198759156E-2   -4.606045315972688      -3.690148756373857E-2   -4.618529626219824      -4.671736748590077E1     1.333916637900143E1
 2.259250000000000E7    -4.565384143715175E1     1.619807964251066E1    -3.986891527771443E-2   -4.682054866347486      -3.741784302484714E-2   -4.688445611539080      -4.674532274820534E1     1.248538609906558E1
 2.296737500000000E7    -4.557419096210752E1     1.521020531621851E1    -4.017136378879879E-2   -4.752460959042577      -3.811090835835739E-2   -4.762506994224077      -4.642538516081175E1     1.146217007475544E1
 2.334225000000000E7    -4.546305567953569E1     1.604673785909514E1    -4.102090178543460E-2   -4.832439924608600      -3.856193195202151E-2   -4.840375922236040      -4.648886022353330E1     1.236733100300589E1
 2.371712500000000E7    -4.538053133558634E1     1.516504818724127E1    -4.174304862263981E-2   -4.905009235617161      -3.999056183013891E-2   -4.921934396928534      -4.630762727474931E1     1.250686408148569E1
 2.409200000000000E7    -4.536115993121520E1     1.542028636455933E1    -4.244001531484313E-2   -4.980486724381397      -4.102931885175927E-2   -5.000599251719995      -4.582110107490283E1     1.277480939619105E1
 2.446687500000000E7    -4.533264260467836E1     1.738494049306178E1    -4.335392313314408E-2   -5.067302056242508      -4.034534246933751E-2   -5.074873722438000      -4.605315133055075E1     1.198956235517754E1
 2.484175000000000E7    -4.571314286633452E1     1.664224476127184E1    -4.248473096365796E-2   -5.144313074334969      -4.117345559662401E-2   -5.160038921340750      -4.580078622209051E1     1.355376848876900E1
 2.521662500000000E7    -4.523327728710857E1     1.793123973632061E1    -4.305506083834290E-2   -5.242491672200005      -4.057539683504512E-2   -5.237921636908437      -4.587444344611850E1     1.610752822322709E1
 2.559150000000000E7    -4.540173464053278E1     1.898173611385198E1    -4.327693370940086E-2   -5.319127579692460      -4.099051731257099E-2   -5.317008623421013      -4.573824760394275E1     1.421496303778326E1
 2.596637500000000E7    -4.527485342386242E1     1.949371057201958E1    -4.374563344202623E-2   -5.393162171168172      -4.011466823747800E-2   -5.396180516799643      -4.612851469989108E1     1.397009518459467E1
 2.634125000000000E7    -4.496526599983792E1     1.841771376000645E1    -4.432259061599434E-2   -5.472854470459025      -4.040218581606647E-2   -5.467279950095391      -4.613841524972295E1     1.278742115105628E1
 2.671612500000000E7    -4.499906254352044E1     1.810549630665916E1    -4.492736966573623E-2   -5.547734806512822      -4.033499016696859E-2   -5.545282619427879      -4.593192957869362E1     1.116284768264239E1
 2.709100000000000E7    -4.488520127217185E1     1.756265900007923E1    -4.483964553747502E-2   -5.626261685244681      -4.125351782497998E-2   -5.620669464397504      -4.573291165164039E1     1.251642997791387E1
 2.746587500000000E7    -4.499133359202683E1     1.733189141937496E1    -4.429081543855309E-2   -5.697722584001560      -4.204963530580678E-2   -5.703066336240257      -4.567865598668773E1     1.239332675113833E1
 2.784075000000000E7    -4.495513411349553E1     1.649239855601378E1    -4.462700031071846E-2   -5.772891492034044      -4.227595015783728E-2   -5.774555290502752      -4.559747063295958E1     1.097437381208644E1
 2.821562500000000E7    -4.486024586860361E1     1.739137432312161E1    -4.565144253974564E-2   -5.850688616489852      -4.170606864313563E-2   -5.851703588912050      -4.573857473099569E1     1.184407184764366E1
 2.859050000000000E7    -4.475428607271317E1     1.676642964705651E1    -4.571091800407965E-2   -5.926511531188973      -4.294775922955489E-2   -5.928936131134520      -4.591708439321302E1     1.135397389796334E1
 2.896537500000000E7    -4.473712645697126E1     1.624665417024558E1    -4.591567062306105E-2   -6.004023569995587      -4.373490237033762E-2   -6.001048758939074      -4.572183362710217E1     1.185481024351138E1
 2.934025000000000E7    -4.488609165230525E1     1.599096131735007E1    -4.718637775425111E-2   -6.082465615404269      -4.423571491165805E-2   -6.078034358840124      -4.548797880646055E1     1.122321948734088E1
 2.971512500000000E7    -4.483741713202828E1     1.437790708607154E1    -4.641327818617148E-2   -6.155513446045229      -4.438160134853406E-2   -6.152545085577426      -4.567819902707921E1     1.186819512115007E1
 3.009000000000000E7    -4.508118579029716E1     1.529550504373172E1    -4.560102447789456E-2   -6.231040670260986      -4.419457282258962E-2   -6.232002036737424      -4.551769507985771E1     9.127966183263371
 3.046487500000000E7    -4.490469382524164E1     1.457806162899727E1    -4.649847887225943E-2   -6.304249782838141      -4.451037403809365E-2   -6.306819683654843      -4.562550737051615E1     8.441432712330952
 3.083975000000000E7    -4.475060815572137E1     1.447586569590450E1    -4.569776954981065E-2   -6.381011208090168      -4.414322455828276E-2   -6.384255810292394      -4.571140172221628E1     9.902068962078422
 3.121462500000000E7    -4.476940306532583E1     1.324273277719311E1    -4.696576501512083E-2   -6.455224127737545      -4.485019586098538E-2   -6.459588332913103      -4.547117875723890E1     1.081548112631465E1
 3.158950000000000E7    -4.470225576607862E1     1.294876452963974E1    -4.778487530002640E-2   -6.532758514121374      -4.559158210605491E-2   -6.534876185125637      -4.538412026889915E1     9.840185581954072
 3.196437500000000E7    -4.463871822265260E1     1.363947788181639E1    -4.817530261474366E-2   -6.609461706835466      -4.538471274411680E-2   -6.606601491510903      -4.533024472834714E1     9.534185735547787
 3.233925000000000E7    -4.450780691554885E1     1.249983081705284E1    -4.778415690171726E-2   -6.685115266392218      -4.608406156719664E-2   -6.689549648458882      -4.544220374840100E1     1.087004427466987E1
 3.271412500000000E7    -4.473225751814787E1     1.366695907514271E1    -4.882941182413482E-2   -6.759907947117305      -4.608266515176117E-2   -6.766173044366429      -4.552061813189909E1     1.014427090813317E1
 3.308900000000000E7    -4.442671975312341E1     1.232513225980764E1    -4.911982676471169E-2   -6.832537735106700      -4.691684721690948E-2   -6.838233182965443      -4.548390744422648E1     1.077947439151243E1
 3.346387500000000E7    -4.446379501339176E1     1.213413929481381E1    -5.008191025162712E-2   -6.914815937344996      -4.664312610642757E-2   -6.915248952802767      -4.527904182666906E1     9.082811146625289
 3.383875000000000E7    -4.458481292641785E1     1.104235654177606E1    -5.004166239702567E-2   -6.982452190533897      -4.661536216347198E-2   -6.988441150909803      -4.518246559755008E1     8.404543593169782
 3.421362500000000E7    -4.453852820404833E1     1.181843660439574E1    -4.921161934143733E-2   -7.062095766618457      -4.704678908638869E-2   -7.066503874502557      -4.514353187088888E1     8.219732628883783
 3.458850000000000E7    -4.433016234992508E1     1.114946326352705E1    -4.975968315133998E-2   -7.141100827746158      -4.696288436840750E-2   -7.143245581311736      -4.519891422224981E1     8.611939059082131
 3.496337500000000E7    -4.435697618734592E1     9.860050456619827      -4.981304482228062E-2   -7.212864730428296      -4.840157848320152E-2   -7.220207260546589      -4.513513477978486E1     8.476500974040885
 3.533825000000000E7    -4.430779219246109E1     1.024407203292103E1    -4.964231387080831E-2   -7.282620938653369      -4.890616755766380E-2   -7.287184617927335      -4.509689094827132E1     8.408730913870819
 3.571312500000000E7    -4.438018341820560E1     9.554386656017318      -5.063775914709855E-2   -7.359321338635875      -4.822525612118393E-2   -7.362250742683675      -4.476537598226984E1     7.911736339607822
 3.608800000000000E7    -4.422091871279505E1     9.659330617550054      -5.074646723021312E-2   -7.434963756255971      -4.895970340931799E-2   -7.437708911024399      -4.497569983925507E1     7.340270443310184
 3.646287500000000E7    -4.413991757288298E1     9.526982397171583      -5.050567930824679E-2   -7.511238490460304      -4.893875342576716E-2   -7.515803175296910      -4.503792681062991E1     7.966222493897351
 3.683775000000000E7    -4.394429493867313E1     1.039318540305010E1    -5.102238012856205E-2   -7.585101777886048      -4.920303739379804E-2   -7.591771893376014      -4.504494734382725E1     7.388802231519657
 3.721262500000000E7    -4.397296612940174E1     9.013124592613739      -5.067383524070347E-2   -7.657795105451132      -4.935011825008434E-2   -7.667830854142759      -4.468862339613328E1     7.339343389559964
 3.758750000000000E7    -4.404113603622755E1     8.941492898242551      -5.124821373779814E-2   -7.733561219234743      -4.914032585890766E-2   -7.743019860273153      -4.454134509774434E1     7.580575478448393
 3.796237500000000E7    -4.411395955167706E1     9.860975389844681      -5.195329067834743E-2   -7.815177024185225      -5.021086212075868E-2   -7.811068981963191      -4.447538471697328E1     5.100810634536350
 3.833725000000000E7    -4.392036176414016E1     8.580416108407444      -5.185732346479678E-2   -7.888728819829168      -5.089820689532149E-2   -7.899054041086733      -4.479579686586814E1     5.887019803232660
 3.871212500000000E7    -4.388750144589449E1     8.393409941407363      -5.194361755190820E-2   -7.963390470262386      -5.090271085677770E-2   -7.974423408106118      -4.450311045514780E1     6.043207392622525
 3.908700000000000E7    -4.380660627089409E1     8.409945216603157      -5.278528919075499E-2   -8.040866046613781      -5.018013774910231E-2   -8.053258024943171      -4.463687908493267E1     5.815662805616006
 3.946187500000000E7    -4.386756622055643E1     7.653794972402439      -5.140260151497746E-2   -8.115610651119004      -5.066634493510137E-2   -8.122421350837778      -4.439855336392650E1     5.596285597219391
 3.983675000000000E7    -4.380750568872219E1     7.504296811205629      -5.255502534953800E-2   -8.189953473830052      -5.155330864279272E-2   -8.201023100622876      -4.475972273394451E1     5.898433003077506
 4.021162500000000E7    -4.391560823727180E1     7.191800408156354      -5.305774411732165E-2   -8.265829126631202      -5.216115292255953E-2   -8.274214505896717      -4.440596221382135E1     4.986417272773678
 4.058650000000000E7    -4.386122432988338E1     7.154257539098167      -5.251933571436398E-2   -8.342030786593536      -5.164277690717443E-2   -8.351366908890155      -4.447220601716901E1     5.577493945519468
 4.096137500000000E7    -4.372590751318558E1     8.631981726543923      -5.267125067220705E-2   -8.415370842308516      -5.180715355079303E-2   -8.429871429645157      -4.454622446878241E1     4.401199934668384
 4.133625000000000E7    -4.381556809319213E1     6.786138804824718      -5.327687704704537E-2   -8.497037329220630      -5.154191737786711E-2   -8.501241807518314      -4.450131859574473E1     4.017243142263490
 4.171112500000000E7    -4.375771666036417E1     6.506952161606714      -5.329635811079890E-2   -8.573557694108267      -5.105559585286172E-2   -8.578741653254799      -4.445929128161922E1     5.796666024863064
 4.208600000000000E7    -4.367628093918555E1     6.171997997651642      -5.328616015013830E-2   -8.646669214355846      -5.129513772835142E-2   -8.655473719724917      -4.465900362945760E1     5.491123806057171
 4.246087500000000E7    -4.384661838869701E1     7.357601177863492      -5.316336535844252E-2   -8.726217035809057      -5.170742911890222E-2   -8.732978165125061      -4.468540282261217E1     4.454471622447981
 4.283575000000000E7    -4.367370749106664E1     6.736447146909743      -5.299158033208056E-2   -8.802661642113847      -5.368963599618877E-2   -8.809333666420070      -4.446155504870270E1     4.662269010601892
 4.321062500000000E7    -4.356662956805724E1     5.942255090843800      -5.432175059478961E-2   -8.877346303739996      -5.428886705853493E-2   -8.883426488128610      -4.424572052742063E1     5.254277726430697
 4.358550000000000E7    -4.361534633543708E1     6.191597567433754      -5.562195471689432E-2   -8.952415310459919      -5.398334249601035E-2   -8.961995886897011      -4.419703676877938E1     4.559747413570072
 4.396037500000000E7    -4.368785994874947E1     5.273912078871605      -5.532811728405599E-2   -9.026597405446275      -5.362973703419224E-2   -9.035310341304131      -4.427697884805140E1     4.130155866065430
 4.433525000000000E7    -4.354134442212028E1     5.056017327230743      -5.519876078451134E-2   -9.103767427598699      -5.402521887358264E-2   -9.112260324549355      -4.433113578852624E1     3.511811293772468
 4.471012500000000E7    -4.358282743186823E1     5.780161345736599      -5.577674411395338E-2   -9.181554982297461      -5.398402736754367E-2   -9.187685085609012      -4.449679138640342E1     3.208380953952007
 4.508500000000000E7    -4.353649742478520E1     4.418690049960846      -5.526201873506491E-2   -9.255053822041988      -5.391287952383009E-2   -9.265091368385814      -4.435525204568620E1     3.669023833928681
 4.545987500000000E7    -4.351757726805665E1     4.667214013660275      -5.610511782608825E-2   -9.328964003483890      -5.404167665298887E-2   -9.335505213716557      -4.433204123615937E1     2.808777070617595
 4.583475000000000E7    -4.346211288585118E1     2.682872092666826      -5.637393280807473E-2   -9.405231759988848      -5.434273883480033E-2   -9.409945215135552      -4.439550091848637E1     3.309908128197366
 4.620962500000000E7    -4.339137703782399E1     2.872160868006765      -5.650436132313495E-2   -9.475565149577891      -5.564855371112258E-2   -9.488216067745116      -4.414352255107706E1     3.002222528024237
 4.658450000000000E7    -4.336488308936425E1     2.772840999900620      -5.637958733325896E-2   -9.552274804284510      -5.546851237490294E-2   -9.561698345125603      -4.396687969520662E1     1.609376346952067
 4.695937500000000E7    -4.332920759379690E1     3.544899028575180      -5.758839254230500E-2   -9.627751881016694      -5.614569576767753E-2   -9.640382324974006      -4.416912129018326E1     8.638955890114546E-1
 4.733425000000000E7    -4.346729682018476E1     3.203949088957804      -5.782476695887875E-2   -9.706983929328535      -5.588670747111904E-2   -9.715487646291384      -4.418610645157554E1     1.233243278541705
 4.770912500000000E7    -4.339029426761523E1     2.718856342086117      -5.812746495035793E-2   -9.783203323419254      -5.594980076216155E-2   -9.791213490362228      -4.435313267309877E1     2.232830542399123
 4.808400000000000E7    -4.330639187144062E1     1.512431887417704      -5.800276718025342E-2   -9.857873114632421      -5.643000259015458E-2   -9.866429722364627      -4.407578025426994E1     2.388848918357195
 4.845887500000000E7    -4.341308813977550E1     2.747369186982650      -5.790446956705984E-2   -9.933334181016400      -5.658950686015073E-2   -9.940253943094117      -4.396714827833372E1     1.375252122352328
 4.883375000000000E7    -4.341052804749621E1     2.788203419338071      -5.787424671733238E-2   -1.000933990783765E1    -5.602327385653385E-2   -1.001608976358577E1    -4.388378372697922E1     4.315365928909681E-1
 4.920862500000000E7    -4.339042411718894E1     1.261403540943343      -5.853222514557426E-2   -1.008539187321010E1    -5.749679621334827E-2   -1.009089736417305E1    -4.387543730184737E1     2.728830572499490E-1
 4.958350000000000E7    -4.336593353783706E1     1.868307240013630      -5.849808599845844E-2   -1.015989144604729E1    -5.724663678083766E-2   -1.016647426610692E1    -4.385175675890618E1     1.160555284741432E-1
 4.995837500000000E7    -4.334329215351114E1     1.794478165863872      -5.863084864998745E-2   -1.023478091165788E1    -5.697954017839859E-2   -1.024500409209909E1    -4.401332520896885E1    -3.538737775787331E-1
 5.033325000000000E7    -4.339813996224002E1     1.006799929806572      -5.807824713698506E-2   -1.031097009764917E1    -5.825095046129215E-2   -1.032287998412181E1    -4.397079580645983E1     8.179187031866669E-1
 5.070812500000000E7    -4.335915422255706E1     1.680657427826111      -5.868056024104755E-2   -1.039144982492766E1    -5.795265130650833E-2   -1.039681428354039E1    -4.374455118859476E1     1.389538140410388
 5.108300000000000E7    -4.342637401116870E1     1.404534734966439      -5.922135505478099E-2   -1.046894154165108E1    -5.717567258915409E-2   -1.047140390602156E1    -4.382823614865994E1     1.574327265684605
 5.145787500000000E7    -4.344347982879160E1     1.024524728261264      -5.884125882742632E-2   -1.054406352604668E1    -5.804470175721602E-2   -1.054866251211805E1    -4.386485201512463E1     6.133424604846344E-1
 5.183275000000000E7    -4.338577854111616E1     3.024836622040413E-1   -5.872392387330606E-2   -1.061892106038155E1    -5.827914410888617E-2   -1.062401978284780E1    -4.391202446708817E1     6.945357039185596E-1
 5.220762500000000E7    -4.339915681960171E1    -2.341510818137623E-1   -5.858880917807252E-2   -1.069555758201862E1    -5.779442229548731E-2   -1.069982759135170E1    -4.402383099214799E1     3.283835336632257E-1
 5.258250000000000E7    -4.349532194135539E1     2.541444333165016E-1   -5.955765715789736E-2   -1.077083025172058E1    -5.835325412413362E-2   -1.077764595583166E1    -4.382975006965684E1    -3.809594125233243E-1
 5.295737500000000E7    -4.338324267206260E1     7.726179980943823E-1   -5.931798883870027E-2   -1.084723070909566E1    -5.820362627134588E-2   -1.085289592879043E1    -4.371127450145296E1    -1.455060817536328
 5.333225000000000E7    -4.335403938747510E1    -5.945342935312810E-1   -5.894308806561487E-2   -1.092330100000980E1    -5.878662116800062E-2   -1.093010046841504E1    -4.385724652485892E1    -7.795764965360342E-1
 5.370712500000000E7    -4.328623706825910E1    -2.683206199813102E-1   -5.930891297190338E-2   -1.100063216617745E1    -5.930376976477150E-2   -1.100661450593832E1    -4.399187541303856E1    -1.425478321893115E-1
 5.408200000000000E7    -4.342798034129039E1     3.649827018473975E-2   -5.910981178369210E-2   -1.107532267407112E1    -5.930308533423883E-2   -1.108310181710463E1    -4.399771408206463E1     5.844254218985568E-1
 5.445687500000000E7    -4.328726516568317E1    -3.246448986021948E-1   -5.943916948646441E-2   -1.115202602164238E1    -5.883198089122330E-2   -1.115652393960714E1    -4.399499011437555E1    -8.424495145911440E-2
 5.483175000000000E7    -4.334944418902366E1    -5.140930900221287E-1   -6.011183568425578E-2   -1.122848037132716E1    -5.867140637331112E-2   -1.123173677763437E1    -4.391653402391810E1    -1.057996473476692
 5.520662500000000E7    -4.335834767513605E1    -1.026699785793584      -6.008487776589222E-2   -1.130197618812433E1    -5.857180938848619E-2   -1.130610629535755E1    -4.375345013321065E1    -1.434428757998903
 5.558150000000000E7    -4.326542908984371E1    -1.129107659855501      -5.918809305135803E-2   -1.137861080617723E1    -5.930232339797618E-2   -1.138108172918216E1    -4.370084778844713E1    -1.133044297631182
 5.595637500000000E7    -4.333056221663719E1    -1.762087673674409      -5.969687665569409E-2   -1.145277639762838E1    -5.952812527361191E-2   -1.145687666274132E1    -4.379969648174298E1    -1.493296801856885
 5.633125000000000E7    -4.320613971742266E1    -1.824767052591777      -6.032610938475502E-2   -1.152845278525654E1    -5.921880976574083E-2   -1.153541891006847E1    -4.382244539629876E1    -1.854473010697018
 5.670612500000000E7    -4.324977479926677E1    -1.869972403358401      -6.012198624084754E-2   -1.160556340764092E1    -5.933425534972710E-2   -1.160900530769477E1    -4.383652049505832E1    -1.739251245126439
 5.708100000000000E7    -4.337205973628913E1    -1.850898052655642      -5.925298391653476E-2   -1.167942137615643E1    -5.947920639545007E-2   -1.168538401208346E1    -4.364492550959013E1    -2.005060734033420
 5.745587500000000E7    -4.332952032726067E1    -2.512403361391526      -6.057379743825084E-2   -1.175836508833134E1    -5.961789535827989E-2   -1.175601108417689E1    -4.371915134738769E1    -2.541277587760183
 5.783075000000000E7    -4.334232740127558E1    -2.927338897331447      -6.007437072863304E-2   -1.183485472439305E1    -6.069013555787059E-2   -1.183378727460873E1    -4.374995532480088E1    -2.499424621101887
 5.820562500000000E7    -4.331413953736394E1    -1.911951997173978      -6.027754131599946E-2   -1.191136396127174E1    -5.942404300962358E-2   -1.190911803910296E1    -4.372712492964204E1    -2.539200636817499
 5.858050000000000E7    -4.334855516104718E1    -2.572727352411213      -6.079075704197537E-2   -1.198620112728747E1    -5.992786025636854E-2   -1.198616773943903E1    -4.385032306848028E1    -2.546466504781963
 5.895537500000000E7    -4.333959604288155E1    -1.949169970005034      -6.045852264661992E-2   -1.206099949058272E1    -6.018730661081647E-2   -1.206198377736809E1    -4.372666126929862E1    -2.540687298512235
 5.933025000000000E7    -4.329944905523796E1    -2.565284024996435      -5.993366573788121E-2   -1.213749294200468E1    -6.033560484257483E-2   -1.213771658157940E1    -4.385118058744914E1    -2.777282799831485
 5.970512500000000E7    -4.331890090204414E1    -3.273757604603198      -6.120563064904425E-2   -1.221615394344344E1    -5.989079491351531E-2   -1.221115443788781E1    -4.369464111832303E1    -2.699845713205408
 6.008000000000000E7    -4.324727320231567E1    -3.079044142078841      -6.131603387106579E-2   -1.229161749385920E1    -5.964098400912406E-2   -1.228741569245434E1    -4.365889070016250E1    -3.209489741695669
 6.045487500000000E7    -4.328081672873034E1    -2.677809223297138      -6.051992945846947E-2   -1.236904187022691E1    -5.993957354727072E-2   -1.236377608210917E1    -4.369644007894821E1    -2.253024623683474
 6.082975000000000E7    -4.333304466816892E1    -3.960409801366410      -6.110447644968936E-2   -1.244036510973968E1    -6.057273997174543E-2   -1.244109402123133E1    -4.371602653377232E1    -2.539758816520786
 6.120462500000000E7    -4.337673756962865E1    -3.905877531684611      -6.071934628778448E-2   -1.251832084986365E1    -6.078583400006062E-2   -1.251486151375822E1    -4.379410579202023E1    -3.344348381049877
 6.157950000000000E7    -4.324607136872238E1    -3.775491009697708      -6.045355790043046E-2   -1.259339551603019E1    -5.988571886282021E-2   -1.258868151972332E1    -4.370355137012189E1    -2.834741196899667
 6.195437500000000E7    -4.314131735300599E1    -3.277223099210696      -6.139949740079266E-2   -1.266625502279983E1    -5.989504720342394E-2   -1.266309775348557E1    -4.362973490777843E1    -4.891728568198753
 6.232925000000000E7    -4.336741617319571E1    -3.971148274143798      -6.085673782776306E-2   -1.274323736536325E1    -6.032215734096084E-2   -1.273977251608368E1    -4.354599221811887E1    -4.187321470543326
 6.270412500000000E7    -4.344201039718983E1    -3.838817188831913      -6.149014582024028E-2   -1.281893358025631E1    -5.995020745748053E-2   -1.281848458088668E1    -4.374012256685920E1    -2.861123625658544
 6.307900000000000E7    -4.331758884203339E1    -3.875386720891248      -6.186439185306621E-2   -1.289715569542793E1    -5.987429252258521E-2   -1.289398675855821E1    -4.374275697260094E1    -3.277231986311370
 6.345387500000000E7    -4.333217381105232E1    -5.087698745861004      -6.133526008517159E-2   -1.297049603454839E1    -6.037883574757089E-2   -1.296823687185063E1    -4.369208121643855E1    -3.849560054635749
 6.382875000000000E7    -4.343661040687691E1    -4.990943479856982      -6.048263783020066E-2   -1.304816423898689E1    -5.977510091804779E-2   -1.304537296838631E1    -4.353951465582226E1    -3.907534893183193
 6.420362500000000E7    -4.355206103146610E1    -4.428578066424295      -6.169544431616336E-2   -1.312425961935747E1    -6.003526228521078E-2   -1.312187247605122E1    -4.354800223147902E1    -4.535667920795629
 6.457850000000000E7    -4.352431803262465E1    -4.882137604158821      -6.158773953711383E-2   -1.319864291539580E1    -6.036893748770277E-2   -1.319791360587999E1    -4.352021245081460E1    -4.216847772424001
 6.495337500000000E7    -4.342801486813087E1    -5.377912142235679      -6.183937357612847E-2   -1.327505790219151E1    -6.004136114493712E-2   -1.327456880709400E1    -4.357678994121581E1    -4.235996149535527
 6.532825000000000E7    -4.315706879905378E1    -4.711129956723854      -6.150398915804174E-2   -1.334943620461465E1    -5.991974237231300E-2   -1.335222771739372E1    -4.375212992218125E1    -4.619454337021128
 6.570312500000000E7    -4.319325550496618E1    -4.446950142621578      -6.183680537784440E-2   -1.342873577068820E1    -5.990274309662400E-2   -1.342665071841936E1    -4.373832010733395E1    -4.694434778841177
 6.607800000000000E7    -4.320191129913563E1    -4.866063409763306      -6.150822961024579E-2   -1.350591836855205E1    -6.003873569894988E-2   -1.350013861563742E1    -4.360039899730658E1    -5.117007906174933
 6.645287500000000E7    -4.318083892733327E1    -4.438472317787697      -6.082418288726807E-2   -1.358122306581445E1    -6.003772314689590E-2   -1.357668558473170E1    -4.361565287470597E1    -4.854915521841567
 6.682775000000000E7    -4.344150760588728E1    -6.035774699602273      -6.102095217620153E-2   -1.365718306445228E1    -6.047719740706095E-2   -1.365626241451662E1    -4.359097509592674E1    -4.092644769936363
 6.720262500000000E7    -4.326810998291943E1    -6.144705983084640      -6.148083058183488E-2   -1.373239023607011E1    -5.977820382306757E-2   -1.373048834827983E1    -4.352353125276251E1    -5.444081846330748
 6.757750000000000E7    -4.329393777626072E1    -5.199265705051905      -6.235497774418840E-2   -1.381044886718909E1    -5.977442078739945E-2   -1.380826216416748E1    -4.371496094300138E1    -5.495650834630472
 6.795237500000000E7    -4.326154528263519E1    -5.267334695045694      -6.219164435581389E-2   -1.388993346211761E1    -5.976564581659126E-2   -1.388539437829155E1    -4.352832955301432E1    -5.893395532895697
 6.832725000000000E7    -4.337712588768082E1    -5.260531922961051      -6.183982535956550E-2   -1.396098512445993E1    -6.033251816159037E-2   -1.396324430145536E1    -4.366306684548783E1    -5.459684942082934
 6.870212500000000E7    -4.338125894170797E1    -4.733685811056933      -6.125446855169545E-2   -1.404000755953041E1    -6.000136822321083E-2   -1.403972739266521E1    -4.365555753905643E1    -5.604556916518140
 6.907700000000000E7    -4.339143306998173E1    -5.461346205648637      -6.230302073086046E-2   -1.411444561844631E1    -5.974889861246101E-2   -1.411522901609771E1    -4.352261308333161E1    -6.001619227453713
 6.945187500000000E7    -4.324355763932595E1    -6.516412541686420      -6.188366909166687E-2   -1.418915000957872E1    -6.010809943428273E-2   -1.419246531316560E1    -4.361953495154586E1    -5.318788219768050
 6.982675000000000E7    -4.331650522247784E1    -6.761699882607667      -6.198444766486043E-2   -1.426465136321505E1    -6.053856775957141E-2   -1.426536631549903E1    -4.355864329807662E1    -5.284207342304512
 7.020162500000000E7    -4.322934180797111E1    -6.262120408924718      -6.206211810453100E-2   -1.434157496926742E1    -5.944358060316414E-2   -1.434467957752845E1    -4.371026022573511E1    -5.553849241119244
 7.057650000000000E7    -4.340201046358673E1    -6.402729617224523      -6.175687098747205E-2   -1.441972815781763E1    -5.984735482440698E-2   -1.442147746828068E1    -4.355783202790703E1    -5.847001844833648
 7.095137500000000E7    -4.330526813658704E1    -6.185757295285083      -6.146209317158300E-2   -1.449787738552165E1    -5.992646027765863E-2   -1.450036352660254E1    -4.362023841814831E1    -5.587777862630076
 7.132625000000000E7    -4.332569748839389E1    -6.929350345434377      -6.246590076220988E-2   -1.457448008736655E1    -6.033837103065121E-2   -1.457545594774971E1    -4.368272564909552E1    -5.375681581946604
 7.170112500000000E7    -4.337331707759974E1    -7.017901101453227      -6.227064168994239E-2   -1.464720397292061E1    -5.993819982686774E-2   -1.464983620007994E1    -4.363605511624684E1    -6.265194945346710
 7.207600000000000E7    -4.329116002716358E1    -7.518095940493561      -6.255529355203211E-2   -1.472169660333515E1    -6.026214043257316E-2   -1.472770446479599E1    -4.366065774864774E1    -5.081016267995609
 7.245087500000000E7    -4.335273745381927E1    -7.545236863142008      -6.269774015110102E-2   -1.480057521378552E1    -5.997637615881422E-2   -1.480269204166254E1    -4.372317100443348E1    -5.260983409385410
 7.282575000000000E7    -4.318295379377173E1    -6.920880239905029      -6.240158759222292E-2   -1.487632917722323E1    -5.990938479468671E-2   -1.488371130210160E1    -4.368438955567871E1    -5.760492439593607
 7.320062500000000E7    -4.326179640847205E1    -6.870311639632456      -6.202955778897346E-2   -1.495374879703231E1    -6.071116698289074E-2   -1.495927221681179E1    -4.359213410469248E1    -5.035228140765216
 7.357550000000000E7    -4.347220121714587E1    -5.808452416678938      -6.236168688016377E-2   -1.503339820922857E1    -6.009803962647736E-2   -1.503364169918597E1    -4.361069998248266E1    -6.415031683602330
 7.395037500000000E7    -4.349146573940580E1    -7.438758454980028      -6.213688894124529E-2   -1.510579686389167E1    -6.057898808170939E-2   -1.511479267893952E1    -4.373024167686476E1    -5.653729069752103
 7.432525000000000E7    -4.341970682264926E1    -7.349320824787804      -6.146362780718721E-2   -1.518200601511814E1    -6.045172921621486E-2   -1.518886159601719E1    -4.353589415982122E1    -6.977213176266037
 7.470012500000000E7    -4.331528980204118E1    -8.007222948855327      -6.222125230050252E-2   -1.525350060022213E1    -6.123520122840258E-2   -1.526236720995127E1    -4.366463805209986E1    -7.120136077073778
 7.507500000000000E7    -4.344147290646340E1    -7.835142683593575      -6.288228036342618E-2   -1.533037005397605E1    -6.081437830274899E-2   -1.533717983420012E1    -4.351427244167715E1    -6.645608322618314
 7.544987500000000E7    -4.336150570629833E1    -7.803595195553028      -6.266393349471638E-2   -1.540833487778607E1    -6.075969660628013E-2   -1.541162405726775E1    -4.377023653787447E1    -6.201546825084503
 7.582475000000000E7    -4.335539116497797E1    -8.111349424972527      -6.235054121635165E-2   -1.548465621829905E1    -6.129980747971838E-2   -1.549025933718949E1    -4.362721831224385E1    -6.054690555693751
 7.619962500000000E7    -4.337686706277421E1    -7.650234054947480      -6.257260775182079E-2   -1.555965468290946E1    -6.111504371669282E-2   -1.556802024395490E1    -4.353450930403966E1    -6.574160461174394
 7.657450000000000E7    -4.318668966156996E1    -7.347539563187162      -6.241941509521540E-2   -1.563807288990495E1    -5.998832360033868E-2   -1.564409098651282E1    -4.338537198894929E1    -6.382933966101550
 7.694937500000000E7    -4.336289685053014E1    -8.325602297367187      -6.298592912617630E-2   -1.571184071130086E1    -6.120305444925385E-2   -1.571711273446223E1    -4.362919480247356E1    -6.848650336804982
 7.732425000000000E7    -4.346412126417702E1    -8.050105209465405      -6.302635387662925E-2   -1.578924436450414E1    -6.184099673815824E-2   -1.579558127193760E1    -4.368554095662583E1    -6.604516701143816
 7.769912500000000E7    -4.340729655684478E1    -8.501728573069080      -6.307311368361988E-2   -1.586341557188005E1    -6.111456427705559E-2   -1.587293173145936E1    -4.349087930551069E1    -7.056181585144201
 7.807400000000000E7    -4.347329459543392E1    -9.609917450418207      -6.222724799404242E-2   -1.594077740839400E1    -6.141037819268131E-2   -1.595128051156727E1    -4.346913893404923E1    -6.214630164919956
 7.844887500000000E7    -4.350994643863111E1    -8.682370287809514      -6.305469779164359E-2   -1.601697712103200E1    -6.199830907364573E-2   -1.602283892267570E1    -4.342561787584735E1    -7.232102289717630
 7.882375000000000E7    -4.339927102920852E1    -8.757841095578806      -6.371938786850316E-2   -1.609301851747233E1    -6.187766680993454E-2   -1.610032301669768E1    -4.324783296212726E1    -7.056509439589946
 7.919862500000000E7    -4.321302273306291E1    -8.841302806064537      -6.272922646680906E-2   -1.616777702170518E1    -6.167315236150991E-2   -1.617599624985248E1    -4.344934691531741E1    -6.905873476379830
 7.957350000000000E7    -4.320210234168030E1    -8.477002550627326      -6.241917133855714E-2   -1.624625252021540E1    -6.250725773170833E-2   -1.625139324555595E1    -4.354338024039584E1    -7.120234185453518
 7.994837500000000E7    -4.317802603228521E1    -9.412262968264493      -6.294736818718442E-2   -1.632418914067113E1    -6.195040352744325E-2   -1.632766609739564E1    -4.353015393862801E1    -6.962743594074797
 8.032325000000000E7    -4.313872593450555E1    -9.115888205529949      -6.319525470747751E-2   -1.639668593605993E1    -6.193584049834368E-2   -1.640698952527189E1    -4.363215814822265E1    -7.792595175944426
 8.069812500000000E7    -4.335354628194098E1    -9.396135763749081      -6.281095148950551E-2   -1.647416628826498E1    -6.157408807205566E-2   -1.648417066463288E1    -4.353179119962877E1    -7.651707432287130
 8.107300000000000E7    -4.352230040921123E1    -9.882384633025531      -6.250354771054679E-2   -1.655136036576099E1    -6.157217332926818E-2   -1.655774858998651E1    -4.358060001885099E1    -7.960451708215828
 8.144787500000000E7    -4.329389752215416E1    -9.552782289652193      -6.209214987068504E-2   -1.662855341266773E1    -6.199714905121052E-2   -1.663489551368482E1    -4.338708968497411E1    -7.163819671960982
 8.182275000000000E7    -4.318891069993570E1    -9.124249923017477      -6.351269537101507E-2   -1.670405081466168E1    -6.277908046665473E-2   -1.671150137368309E1    -4.356498653771757E1    -7.502409778697737
 8.219762500000000E7    -4.308480164806952E1    -9.327630280090631      -6.367107098059424E-2   -1.678242715112264E1    -6.269266579026384E-2   -1.678910837176334E1    -4.372634257854279E1    -7.722254370374528
 8.257250000000000E7    -4.318943355057027E1    -9.831646093831832      -6.308321752267140E-2   -1.685507662935102E1    -6.210297386408006E-2   -1.686492929977718E1    -4.363901046706525E1    -7.926992752258486
 8.294737500000000E7    -4.325530435107753E1    -1.064069406146617E1    -6.337534692383567E-2   -1.693280245937278E1    -6.222678198095485E-2   -1.693909939457966E1    -4.339110783539634E1    -8.703612275302712
 8.332225000000000E7    -4.327261775234531E1    -1.120528204632428E1    -6.276945295199904E-2   -1.700880896632138E1    -6.347514926458300E-2   -1.701610370313557E1    -4.338681629342656E1    -7.644084716161626
 8.369712500000000E7    -4.331761586440759E1    -1.031357122920207E1    -6.292707895711705E-2   -1.708417376851150E1    -6.233851502844314E-2   -1.709038963470199E1    -4.339621162129368E1    -8.456014353590160
 8.407200000000000E7    -4.331798437973625E1    -9.683279243818744      -6.351180090688870E-2   -1.716105331761644E1    -6.297580092052001E-2   -1.716735360185227E1    -4.374467773191586E1    -7.891792308229840
 8.444687500000000E7    -4.329500833132045E1    -1.025771744716331E1    -6.330746927099314E-2   -1.723593247879183E1    -6.319065699774627E-2   -1.724495408389917E1    -4.354830323783734E1    -8.226720306963164
 8.482175000000000E7    -4.336895578459574E1    -9.793106084930477      -6.310581303582760E-2   -1.731364432681191E1    -6.321351865042438E-2   -1.732176474830095E1    -4.350804681402649E1    -9.094491493963174
 8.519662500000000E7    -4.331514504358597E1    -9.504064920675694      -6.299755246725827E-2   -1.739017706884598E1    -6.220109602684877E-2   -1.739692301861008E1    -4.350706719792235E1    -9.273673358496263
 8.557150000000000E7    -4.326780875252717E1    -1.070642382100029E1    -6.396505861385755E-2   -1.746577255278992E1    -6.179445709951299E-2   -1.747489001232626E1    -4.363580247958728E1    -7.741292047791053
 8.594637500000000E7    -4.322428066442805E1    -1.084606662370442E1    -6.375043024156647E-2   -1.754175437482819E1    -6.266293912327862E-2   -1.754598198507498E1    -4.339445927193278E1    -7.885171925519257
 8.632125000000000E7    -4.324127874219789E1    -1.106759315956712E1    -6.413579009562992E-2   -1.761852826009540E1    -6.240761012741362E-2   -1.762567736409309E1    -4.354425251754453E1    -7.918277413464279
 8.669612500000000E7    -4.317051410968919E1    -1.141461122740878E1    -6.399154904597733E-2   -1.769511702878543E1    -6.266072866202041E-2   -1.769824334770998E1    -4.362875256049100E1    -7.899062274960588
 8.707100000000000E7    -4.328418598264838E1    -1.206035974830531E1    -6.336158729402026E-2   -1.776929058383860E1    -6.311069018567540E-2   -1.777383578015973E1    -4.343940440179627E1    -7.770063977297593
 8.744587500000000E7    -4.322837150548906E1    -1.151188333519667E1    -6.319555637470052E-2   -1.784713089097085E1    -6.279737447002101E-2   -1.785220481074109E1    -4.360986950186919E1    -8.748679645428288
 8.782075000000000E7    -4.319625792940304E1    -1.245036823660833E1    -6.445946428882601E-2   -1.792013963456738E1    -6.216279797253381E-2   -1.793059825670153E1    -4.361552186138801E1    -7.998643651237887
 8.819562500000000E7    -4.328672881956508E1    -1.322098265761080E1    -6.429646226008615E-2   -1.799726735900944E1    -6.305517596671853E-2   -1.800545215890847E1    -4.347202841391581E1    -8.586256668927883
 8.857050000000000E7    -4.320500080735161E1    -1.237299693682134E1    -6.371668231933938E-2   -1.807568159212119E1    -6.381415555308791E-2   -1.808367990820565E1    -4.339997899067586E1    -7.715043128872360
 8.894537500000000E7    -4.340052343178755E1    -1.272997424551544E1    -6.428970903647734E-2   -1.814982082584989E1    -6.323033988631376E-2   -1.815720140207643E1    -4.359199975296260E1    -8.215219167240651
 8.932025000000000E7    -4.330073888184235E1    -1.242396689399141E1    -6.457951752233547E-2   -1.822748496254298E1    -6.378043022284990E-2   -1.823393614159545E1    -4.339333073515841E1    -8.684153796824466
 8.969512500000000E7    -4.324249801187300E1    -1.247518700276432E1    -6.529153661737819E-2   -1.830469164152482E1    -6.345686454466733E-2   -1.831042888531627E1    -4.341526499152992E1    -8.647006221230992
 9.007000000000000E7    -4.324979216725819E1    -1.195840912405216E1    -6.515717208683502E-2   -1.838071305559628E1    -6.432568837413410E-2   -1.838700678339233E1    -4.319091966683460E1    -9.806477052348793
 9.044487500000000E7    -4.320458406395423E1    -1.252423130069949E1    -6.493994127249693E-2   -1.845881605186658E1    -6.453124274997654E-2   -1.846255560725763E1    -4.317628417920852E1    -9.819503646895948
 9.081975000000000E7    -4.334765507646661E1    -1.185151654050834E1    -6.500066437336942E-2   -1.853526850837964E1    -6.481453262563895E-2   -1.853841413184533E1    -4.326251940300227E1    -9.993155980587433
 9.119462500000000E7    -4.320122126568840E1    -1.259578540831410E1    -6.533604244939398E-2   -1.861062874356561E1    -6.389036739166676E-2   -1.861449597998473E1    -4.350373009978980E1    -9.314309312734332
 9.156950000000000E7    -4.318067434143355E1    -1.310895190734418E1    -6.501894448100262E-2   -1.868558053113051E1    -6.388040377134931E-2   -1.869211300566172E1    -4.345549543074500E1    -9.713981763408533
 9.194437500000000E7    -4.312563994899573E1    -1.258670146607037E1    -6.379418786411252E-2   -1.876124551840958E1    -6.397093269648355E-2   -1.876558803546104E1    -4.352107631875562E1    -9.710687204337962
 9.231925000000000E7    -4.313285716740268E1    -1.298204932512400E1    -6.424004187131351E-2   -1.883582671185291E1    -6.463973004045412E-2   -1.884121024183821E1    -4.343943435729749E1    -9.752753370297016
 9.269412500000000E7    -4.315606062080116E1    -1.359428297751629E1    -6.426636613381410E-2   -1.891061463596830E1    -6.421449362813382E-2   -1.891932195787445E1    -4.339021298316077E1    -1.007388989631579E1
 9.306900000000000E7    -4.313734757486525E1    -1.307543493969782E1    -6.500422392934013E-2   -1.898974562247510E1    -6.427163957583704E-2   -1.899467383890816E1    -4.352648711756972E1    -1.019393078041928E1
 9.344387500000000E7    -4.304168181476711E1    -1.240860483625708E1    -6.517530519410797E-2   -1.906559083960423E1    -6.434800824760366E-2   -1.907286301762065E1    -4.354860602663750E1    -1.123384630591891E1
 9.381875000000000E7    -4.313924445847906E1    -1.172871438870833E1    -6.534649777397281E-2   -1.914142522459682E1    -6.479672357953704E-2   -1.914899478209978E1    -4.343746215494122E1    -1.120108456303221E1
 9.419362500000000E7    -4.313718368448643E1    -1.224239156570484E1    -6.465823414940081E-2   -1.922034962709580E1    -6.463969023478613E-2   -1.922515745556977E1    -4.346607133780544E1    -1.107341640313255E1
 9.456850000000000E7    -4.330216624590658E1    -1.245182560537150E1    -6.460945301910813E-2   -1.929420445533528E1    -6.490554020397089E-2   -1.929992575105727E1    -4.352375686982435E1    -1.075807998980211E1
 9.494337500000000E7    -4.333398343562421E1    -1.294202454046067E1    -6.448335247304073E-2   -1.937037406361488E1    -6.362743426976687E-2   -1.937676566979638E1    -4.341520719563939E1    -1.090932351018856E1
 9.531825000000000E7    -4.328167341929042E1    -1.251501851606455E1    -6.499287093808546E-2   -1.944896594672172E1    -6.493496522577322E-2   -1.945323587022690E1    -4.332317483366373E1    -1.023583545926741E1
 9.569312500000000E7    -4.336517381333696E1    -1.361132566658722E1    -6.457171140038405E-2   -1.952221439852643E1    -6.481720410811967E-2   -1.953284391464135E1    -4.341847093079694E1    -1.081141665831881E1
 9.606800000000000E7    -4.327033515336539E1    -1.366767204801686E1    -6.546496283091374E-2   -1.960163041973557E1    -6.474461636395260E-2   -1.960673682701727E1    -4.342681478135358E1    -1.060700778990252E1
 9.644287500000000E7    -4.327729827680689E1    -1.336728971534578E1    -6.548807525963629E-2   -1.967392075532846E1    -6.529935552916727E-2   -1.968423187455966E1    -4.354173886938807E1    -1.099533529956047E1
 9.681775000000000E7    -4.315943468865343E1    -1.311061424354724E1    -6.517567449657805E-2   -1.975527884537956E1    -6.556727384522539E-2   -1.975769459456730E1    -4.339038300208448E1    -1.036809896483056E1
 9.719262500000000E7    -4.308898739259654E1    -1.322336158879438E1    -6.509537959015754E-2   -1.982891576832091E1    -6.467898004474765E-2   -1.983862389645770E1    -4.322971656249035E1    -1.114490635516526E1
 9.756750000000000E7    -4.319169690683995E1    -1.458204407044562E1    -6.481804370263899E-2   -1.990476915811865E1    -6.468881202314071E-2   -1.991160007704679E1    -4.345264218321140E1    -1.119264602410355E1
 9.794237500000000E7    -4.318854485928470E1    -1.445569938303908E1    -6.465099080652133E-2   -1.998164151205203E1    -6.481290041522396E-2   -1.998835738117151E1    -4.355284117386624E1    -1.152416954583757E1
 9.831725000000000E7    -4.316922041063954E1    -1.349954557252180E1    -6.644866524867553E-2   -2.005956673006645E1    -6.477372141662466E-2   -2.006181474880576E1    -4.332377526524418E1    -1.137933155380298E1
 9.869212500000000E7    -4.306473771320950E1    -1.460425567782029E1    -6.632653539354325E-2   -2.013401948892404E1    -6.488014639766419E-2   -2.013890147646985E1    -4.333128642721491E1    -1.153154406446752E1
 9.906700000000000E7    -4.306612276855569E1    -1.429363991202524E1    -6.517188841797414E-2   -2.020937070821752E1    -6.583846417392593E-2   -2.021155509649397E1    -4.322847407455973E1    -1.203453817483456E1
 9.944187500000000E7    -4.312979000301823E1    -1.341572664581789E1    -6.474138915350672E-2   -2.028663373572006E1    -6.553392263183296E-2   -2.029040303890752E1    -4.316543883964526E1    -1.250064705981028E1
 9.981675000000000E7    -4.312521190400376E1    -1.380614706197446E1    -6.552069400545131E-2   -2.036396807797708E1    -6.483517207253316E-2   -2.036688509986163E1    -4.335403116373192E1    -1.178749447287980E1
 1.001916250000000E8    -4.319644302321072E1    -1.355863869158104E1    -6.488123693938869E-2   -2.044057452120636E1    -6.465845617041958E-2   -2.044172445384702E1    -4.347432909469434E1    -1.157134535366833E1
 1.005665000000000E8    -4.324714005196092E1    -1.457600273235954E1    -6.579764202379497E-2   -2.051597556532907E1    -6.420575290614250E-2   -2.052105973512090E1    -4.329574868809709E1    -1.119870802632380E1
 1.009413750000000E8    -4.313955948264034E1    -1.511300857459657E1    -6.529302953951385E-2   -2.058929331177639E1    -6.529202564512492E-2   -2.059584118592079E1    -4.336589709307560E1    -1.091797352511333E1
 1.013162500000000E8    -4.319898253449001E1    -1.464046720834759E1    -6.419134557879665E-2   -2.066875558712055E1    -6.547474876817079E-2   -2.067100726272643E1    -4.333342329874263E1    -1.165307118208347E1
 1.016911250000000E8    -4.316083545517934E1    -1.504823726160643E1    -6.455713565974414E-2   -2.074530152252197E1    -6.497798703614022E-2   -2.075040248135446E1    -4.329510326753736E1    -1.216707139614711E1
 1.020660000000000E8    -4.308020893908628E1    -1.456245192575532E1    -6.487111936636089E-2   -2.081967737440554E1    -6.477862541791574E-2   -2.082428984329334E1    -4.337036372707665E1    -1.148900393138267E1
 1.024408750000000E8    -4.303888075917045E1    -1.469094507934262E1    -6.490016993498583E-2   -2.089707424452652E1    -6.546459533072990E-2   -2.090050552904836E1    -4.344319751228057E1    -1.231381547608930E1
 1.028157500000000E8    -4.315586271289956E1    -1.465982961619203E1    -6.573081688923232E-2   -2.097095965366382E1    -6.516044364284120E-2   -2.097565573469621E1    -4.321725013273827E1    -1.297346641769351E1
 1.031906250000000E8    -4.314247996557960E1    -1.482197888128925E1    -6.563499309893289E-2   -2.104533070761764E1    -6.541774271004551E-2   -2.104939857576398E1    -4.338267061383370E1    -1.223315883901411E1
 1.035655000000000E8    -4.305566354073400E1    -1.512525797635600E1    -6.493451147860023E-2   -2.112348509920777E1    -6.527242434163438E-2   -2.112634242016125E1    -4.350717660477776E1    -1.260402779748149E1
 1.039403750000000E8    -4.310450415373523E1    -1.403654183618445E1    -6.499814943814733E-2   -2.119675380082672E1    -6.430141493719835E-2   -2.120438376453891E1    -4.341263393838063E1    -1.288667351886375E1
 1.043152500000000E8    -4.304137259438504E1    -1.508226430034270E1    -6.531656299337280E-2   -2.127684624483724E1    -6.492067989799263E-2   -2.128226449796251E1    -4.338341341142915E1    -1.215304120514228E1
 1.046901250000000E8    -4.295431385210826E1    -1.520113248314232E1    -6.480146597928065E-2   -2.135646024780787E1    -6.565849297784655E-2   -2.135757076710285E1    -4.349447938382139E1    -1.290192023781360E1
 1.050650000000000E8    -4.300427283982500E1    -1.467530728813793E1    -6.521280378020070E-2   -2.143457476920280E1    -6.548092471004412E-2   -2.143421796303151E1    -4.339346892103036E1    -1.233868553714839E1
 1.054398750000000E8    -4.290327063710593E1    -1.626062932522447E1    -6.664202394673897E-2   -2.150621219799076E1    -6.471751509090191E-2   -2.151211703441001E1    -4.336421866483291E1    -1.156821287075205E1
 1.058147500000000E8    -4.284426080123376E1    -1.592443054197318E1    -6.547274920270695E-2   -2.158377482328070E1    -6.501026221886852E-2   -2.158540699726633E1    -4.335489735561132E1    -1.261876672776113E1
 1.061896250000000E8    -4.295816149745022E1    -1.540458254370792E1    -6.493998923042987E-2   -2.165712288497990E1    -6.561366012374187E-2   -2.166153755840820E1    -4.329394219216606E1    -1.403282287562182E1
 1.065645000000000E8    -4.293705392723147E1    -1.523265063915213E1    -6.542811938249597E-2   -2.173252539139559E1    -6.598377861922725E-2   -2.173580478262570E1    -4.349620395829184E1    -1.372344018326892E1
 1.069393750000000E8    -4.291002015412702E1    -1.589345916994802E1    -6.528597445847385E-2   -2.181086283350195E1    -6.556387614056697E-2   -2.181346943108331E1    -4.353695276579444E1    -1.405235231032055E1
 1.073142500000000E8    -4.305986745677721E1    -1.598446505624979E1    -6.545052960389350E-2   -2.188629573130540E1    -6.520960054588286E-2   -2.188821202212935E1    -4.352079747709368E1    -1.321923798525777E1
 1.076891250000000E8    -4.290102171424130E1    -1.610246189773121E1    -6.659423696614311E-2   -2.196068458212020E1    -6.544153458639615E-2   -2.196587414229636E1    -4.348323841848498E1    -1.323087887812126E1
 1.080640000000000E8    -4.292340794045842E1    -1.619682384762108E1    -6.654107495218921E-2   -2.203535465248756E1    -6.598976430400195E-2   -2.204161795441572E1    -4.319608352209703E1    -1.350931904510654E1
 1.084388750000000E8    -4.294347443873182E1    -1.552067643614567E1    -6.586912261133912E-2   -2.211165494015584E1    -6.636894358015870E-2   -2.211675583741480E1    -4.348462212138970E1    -1.426396750425271E1
 1.088137500000000E8    -4.288734714764882E1    -1.594695883021732E1    -6.690015988609475E-2   -2.218996268624097E1    -6.637674096180839E-2   -2.219215539617639E1    -4.362808807868247E1    -1.331636743944022E1
 1.091886250000000E8    -4.292050893944623E1    -1.561351199852135E1    -6.572817711073099E-2   -2.226289650004959E1    -6.656554743439327E-2   -2.226876056146305E1    -4.351741420321096E1    -1.386365305539653E1
 1.095635000000000E8    -4.276131208535526E1    -1.615041755984560E1    -6.652647227349137E-2   -2.234321513483923E1    -6.624141399082777E-2   -2.234610556877061E1    -4.344534949878799E1    -1.409254762338704E1
 1.099383750000000E8    -4.290460409360335E1    -1.514424817308577E1    -6.610243077178554E-2   -2.241839696969995E1    -6.597266153626642E-2   -2.242406480352198E1    -4.328139080550067E1    -1.453682022433701E1
 1.103132500000000E8    -4.289700591621106E1    -1.546136062785976E1    -6.627872325206900E-2   -2.249513659044221E1    -6.695836528833776E-2   -2.249559687172841E1    -4.341717571459882E1    -1.356591284530833E1
 1.106881250000000E8    -4.287700842683850E1    -1.666560028942160E1    -6.687016936392823E-2   -2.256664138422342E1    -6.634851644127612E-2   -2.257233778591794E1    -4.330542938091644E1    -1.461995583623802E1
 1.110630000000000E8    -4.294131016272268E1    -1.641320115083795E1    -6.709876889283470E-2   -2.264274759739926E1    -6.636663858091843E-2   -2.264995408542418E1    -4.326596414847180E1    -1.455570393708966E1
 1.114378750000000E8    -4.300429381870874E1    -1.675797324372899E1    -6.608724260483614E-2   -2.271881069364706E1    -6.632247106940618E-2   -2.272209539248933E1    -4.343151924790864E1    -1.471927669483694E1
 1.118127500000000E8    -4.288316955274685E1    -1.722315879179935E1    -6.594281606000264E-2   -2.279714377308193E1    -6.614980645239908E-2   -2.279924212824155E1    -4.332395886627917E1    -1.404345035176213E1
 1.121876250000000E8    -4.291892606943954E1    -1.665799609240241E1    -6.584715957206666E-2   -2.287067215877433E1    -6.587484274128685E-2   -2.287394281793814E1    -4.330546087213628E1    -1.443245130853728E1
 1.125625000000000E8    -4.280243631740440E1    -1.753047992137684E1    -6.702255766720605E-2   -2.294749798249157E1    -6.614675393122456E-2   -2.295012186320362E1    -4.337647274134919E1    -1.382781852866685E1
 1.129373750000000E8    -4.298221402139178E1    -1.739258343293780E1    -6.678284868437605E-2   -2.302272704029492E1    -6.692600249504858E-2   -2.302614651558854E1    -4.323513032328286E1    -1.456613610375460E1
 1.133122500000000E8    -4.277038518937928E1    -1.808590502852570E1    -6.617615675164232E-2   -2.310086208309047E1    -6.611958009071660E-2   -2.310236551878567E1    -4.341562856547580E1    -1.443122281816295E1
 1.136871250000000E8    -4.282263582883476E1    -1.797722343771819E1    -6.649637733039739E-2   -2.317762632622670E1    -6.648350811211712E-2   -2.317865318892262E1    -4.334938785071835E1    -1.467203269403021E1
 1.140620000000000E8    -4.288120586296970E1    -1.745919776629286E1    -6.724940755352794E-2   -2.325367175996504E1    -6.693978089245785E-2   -2.325682155959993E1    -4.346347055916376E1    -1.497753739065008E1
 1.144368750000000E8    -4.284784118105532E1    -1.775981764965455E1    -6.697009047484313E-2   -2.333081433072619E1    -6.743063008403018E-2   -2.333162400643675E1    -4.346555108966147E1    -1.505104305656674E1
 1.148117500000000E8    -4.280655608158789E1    -1.848932055203296E1    -6.765825281732753E-2   -2.340367364249299E1    -6.663194295736337E-2   -2.340935298804276E1    -4.356394282653226E1    -1.489889805457037E1
 1.151866250000000E8    -4.280430380566460E1    -1.805327336164849E1    -6.768136422741748E-2   -2.348212981403190E1    -6.666627096621214E-2   -2.348400135266564E1    -4.364042946218869E1    -1.572334087421079E1
 1.155615000000000E8    -4.290589505009387E1    -1.756519109476279E1    -6.714170985657142E-2   -2.355832344190293E1    -6.670618638277662E-2   -2.356009259650242E1    -4.327652993120915E1    -1.578825630728955E1
 1.159363750000000E8    -4.284859611311297E1    -1.765267218419865E1    -6.719946704240534E-2   -2.363352599611535E1    -6.673617683816539E-2   -2.363564935074553E1    -4.332680985222567E1    -1.429449534353425E1
 1.163112500000000E8    -4.288321639040049E1    -1.785377525774184E1    -6.771473449137369E-2   -2.371046821585482E1    -6.720263475564897E-2   -2.371167446068498E1    -4.341305555592064E1    -1.450613403187476E1
 1.166861250000000E8    -4.275449581094116E1    -1.801318121691935E1    -6.816085385717487E-2   -2.378430121526342E1    -6.782663103515585E-2   -2.378760829464882E1    -4.348269723634494E1    -1.543618347438227E1
 1.170610000000000E8    -4.262494669073084E1    -1.790488581226246E1    -6.801256678954717E-2   -2.386412923893663E1    -6.782444863497095E-2   -2.386136366499657E1    -4.348868522373805E1    -1.645980477092672E1
 1.174358750000000E8    -4.271686126777422E1    -1.823200809068569E1    -6.736397389089380E-2   -2.393589976157359E1    -6.848512514423477E-2   -2.393860225965926E1    -4.354964877029411E1    -1.584706775268322E1
 1.178107500000000E8    -4.258527397975438E1    -1.886166195214177E1    -6.862523255019815E-2   -2.401202303833101E1    -6.775892984077085E-2   -2.401789120128732E1    -4.364393416337479E1    -1.456436311242446E1
 1.181856250000000E8    -4.267867800983217E1    -1.854541379536813E1    -6.874368670482500E-2   -2.408849188641309E1    -6.742252565146345E-2   -2.409128536506317E1    -4.365776302301902E1    -1.475933759413939E1
 1.185605000000000E8    -4.273173292562817E1    -1.921745233825028E1    -6.780315105505320E-2   -2.416370467192984E1    -6.801454704781718E-2   -2.416615112253541E1    -4.338956549358577E1    -1.441429867241527E1
 1.189353750000000E8    -4.269055583889763E1    -1.838857202764208E1    -6.815399361021340E-2   -2.423919483339209E1    -6.796692630622174E-2   -2.424187816154902E1    -4.351761456126452E1    -1.556688392164777E1
 1.193102500000000E8    -4.270721210884054E1    -1.902963956369655E1    -6.769932804151675E-2   -2.431696950184678E1    -6.772768215752223E-2   -2.431824165516053E1    -4.371452957093916E1    -1.551329205653270E1
 1.196851250000000E8    -4.254683171467261E1    -1.938917286526489E1    -6.808555478837300E-2   -2.439281935138601E1    -6.809116218621887E-2   -2.439311100561618E1    -4.379321044435837E1    -1.584760721049875E1
 1.200600000000000E8    -4.266718908104078E1    -2.035807955558722E1    -6.820349411859383E-2   -2.446564458552159E1    -6.828974109071338E-2   -2.447026209249705E1    -4.371476077878837E1    -1.676419741183356E1
 1.204348750000000E8    -4.280593605087813E1    -1.933812989340693E1    -6.798414673108574E-2   -2.454507466081309E1    -6.803515394508133E-2   -2.454713538936394E1    -4.368475311028787E1    -1.584006976265099E1
 1.208097500000000E8    -4.273157082922856E1    -1.867788955043803E1    -6.803094641088722E-2   -2.462154894421755E1    -6.756567423587775E-2   -2.462489263576732E1    -4.379835443122992E1    -1.421277494567447E1
 1.211846250000000E8    -4.276797995827518E1    -1.823987217235236E1    -6.784485785312153E-2   -2.469680014212992E1    -6.697552899996487E-2   -2.469821451588921E1    -4.381587092543020E1    -1.432083823763665E1
 1.215595000000000E8    -4.272426305337347E1    -1.799651377502558E1    -6.721081228893860E-2   -2.477110976350265E1    -6.697465274088304E-2   -2.477569931647781E1    -4.367960475386262E1    -1.565012890016020E1
 1.219343750000000E8    -4.286957641986322E1    -1.797335282753656E1    -6.643617637850227E-2   -2.484832851986491E1    -6.709919709205622E-2   -2.485210468222654E1    -4.364762486050076E1    -1.614317430764374E1
 1.223092500000000E8    -4.272049244567632E1    -1.747501680017089E1    -6.698504604650964E-2   -2.492555699350478E1    -6.729896255837617E-2   -2.492834655319283E1    -4.368205085174752E1    -1.723703687557357E1
 1.226841250000000E8    -4.252441942341088E1    -1.800850693346935E1    -6.748287351044498E-2   -2.499790230518377E1    -6.768451426662001E-2   -2.500621606741853E1    -4.374643304531200E1    -1.534885013887166E1
 1.230590000000000E8    -4.264985719653068E1    -1.837556146383306E1    -6.860824685271832E-2   -2.507552876141894E1    -6.718899191623885E-2   -2.508163993923837E1    -4.362084663408502E1    -1.543077246797418E1
 1.234338750000000E8    -4.267707378297097E1    -1.891881631764127E1    -6.708027674407446E-2   -2.514728628854227E1    -6.747648895412550E-2   -2.515380081033490E1    -4.373541217375247E1    -1.561136362598062E1
 1.238087500000000E8    -4.252518101697292E1    -1.930400321101818E1    -6.715696838169059E-2   -2.522528886767696E1    -6.688407918566981E-2   -2.522961546590415E1    -4.379067914307783E1    -1.550926008485223E1
 1.241836250000000E8    -4.260212809432625E1    -1.892612846319114E1    -6.696785641057021E-2   -2.530219843289673E1    -6.725427494295795E-2   -2.530837559852121E1    -4.378055085389547E1    -1.702202461080436E1
 1.245585000000000E8    -4.272145104603196E1    -1.873893061913988E1    -6.779970793975114E-2   -2.537689710963525E1    -6.703459930576766E-2   -2.538508051948810E1    -4.377080067263000E1    -1.591582479728080E1
 1.249333750000000E8    -4.271951399251169E1    -1.910445564425100E1    -6.749517553325052E-2   -2.545672299305786E1    -6.759612227059432E-2   -2.546175971768483E1    -4.367874179275449E1    -1.566822619270323E1
 1.253082500000000E8    -4.269773057717756E1    -1.857126902231940E1    -6.742683609002026E-2   -2.553269392101567E1    -6.701865421740640E-2   -2.553596047071155E1    -4.361398108028347E1    -1.590856808448975E1
 1.256831250000000E8    -4.260474594676579E1    -1.814586924298550E1    -6.689770047189599E-2   -2.560603075741018E1    -6.685596610098440E-2   -2.561365411513103E1    -4.368110436631396E1    -1.719548555960961E1
 1.260580000000000E8    -4.256582830131411E1    -1.847028485527894E1    -6.670409606099277E-2   -2.568484626873797E1    -6.685422381792509E-2   -2.568669735423741E1    -4.379172090376848E1    -1.740181146830952E1
 1.264328750000000E8    -4.255680763173721E1    -1.910814318230931E1    -6.704231650770356E-2   -2.576306671528759E1    -6.733413078389762E-2   -2.576671121355158E1    -4.380448591140116E1    -1.825836429726346E1
 1.268077500000000E8    -4.256215332174098E1    -1.982505403944637E1    -6.798521997021074E-2   -2.584389381327567E1    -6.769066318577320E-2   -2.584503576112497E1    -4.349718932804965E1    -1.800724686501109E1
 1.271826250000000E8    -4.265054938918172E1    -1.962019155593793E1    -6.774265415337170E-2   -2.591740999702703E1    -6.750113520951359E-2   -2.591880603008661E1    -4.356938283468875E1    -1.806373382843790E1
 1.275575000000000E8    -4.264935909154096E1    -1.982460390923038E1    -6.812866157090799E-2   -2.599338088818013E1    -6.768214582316125E-2   -2.599470034419267E1    -4.364693605447140E1    -1.710334013711673E1
 1.279323750000000E8    -4.255853578825494E1    -1.926504542550747E1    -6.828953157365827E-2   -2.606658952681857E1    -6.751505042037717E-2   -2.606982902207448E1    -4.366342506855812E1    -1.676764479700845E1
 1.283072500000000E8    -4.248818330222790E1    -1.956051220910554E1    -6.864531334528910E-2   -2.614237358653101E1    -6.783247333524260E-2   -2.614564686948017E1    -4.376153059080225E1    -1.702628918429311E1
 1.286821250000000E8    -4.240101562751622E1    -1.963347198736615E1    -6.829799552717186E-2   -2.621663339049549E1    -6.831682911864757E-2   -2.622336464636869E1    -4.380155475654458E1    -1.824011118750115E1
 1.290570000000000E8    -4.242156617549072E1    -1.908437087438994E1    -6.854692406014323E-2   -2.629253373065567E1    -6.878968163257054E-2   -2.629759498598968E1    -4.370421638522859E1    -1.894192849359790E1
 1.294318750000000E8    -4.258631262890725E1    -2.011960168137366E1    -6.832666625487310E-2   -2.636785224969800E1    -6.848383258307647E-2   -2.637369207135166E1    -4.352195756903286E1    -1.779539192046349E1
 1.298067500000000E8    -4.249455202521904E1    -2.005678285257807E1    -6.806130603496023E-2   -2.644662248338443E1    -6.796016625733016E-2   -2.644925021653536E1    -4.379814371349820E1    -1.793257742603138E1
 1.301816250000000E8    -4.256871060142645E1    -2.075622471266982E1    -6.809024140360492E-2   -2.652178916434538E1    -6.855114772794668E-2   -2.651996627719419E1    -4.388946129720482E1    -1.683907283873567E1
 1.305565000000000E8    -4.247138642909113E1    -2.001831966025067E1    -6.831042360824256E-2   -2.659557327410176E1    -6.849837165094397E-2   -2.660191216506101E1    -4.386180505285630E1    -1.767665305148484E1
 1.309313750000000E8    -4.235122429524935E1    -2.053183493639036E1    -6.813610291039320E-2   -2.667528324897931E1    -6.768452141856998E-2   -2.667580928677904E1    -4.374599488155853E1    -1.743143265301464E1
 1.313062500000000E8    -4.246081979778856E1    -2.057967739245933E1    -6.810865096030422E-2   -2.675254155823740E1    -6.709040149899258E-2   -2.675314437461677E1    -4.371187192747487E1    -1.806188051434235E1
 1.316811250000000E8    -4.231076029370618E1    -2.038771147699216E1    -6.738800214888788E-2   -2.682519879792190E1    -6.736638478325807E-2   -2.683106128538612E1    -4.382617179738038E1    -1.731471553956920E1
 1.320560000000000E8    -4.226151193862688E1    -1.985846713782658E1    -6.853691324210485E-2   -2.690340884826785E1    -6.721984502003725E-2   -2.690916603796902E1    -4.387656934848710E1    -1.647056059088700E1
 1.324308750000000E8    -4.220698555993364E1    -1.964536620659395E1    -6.763001689058379E-2   -2.698012580460356E1    -6.870864962718760E-2   -2.698085380121419E1    -4.371619182203136E1    -1.827819323762577E1
 1.328057500000000E8    -4.226103366908657E1    -1.976141451598316E1    -6.832965820668639E-2   -2.705458044052948E1    -6.801615738637984E-2   -2.705864688944551E1    -4.366503686954660E1    -1.952882913768707E1
 1.331806250000000E8    -4.234723249863188E1    -1.990287472479897E1    -6.785199734672298E-2   -2.713240707239358E1    -6.868172563706057E-2   -2.713412945726821E1    -4.363085040855167E1    -1.863908942757902E1
 1.335555000000000E8    -4.224416458482693E1    -2.079270075545875E1    -6.799533627141074E-2   -2.720835152119696E1    -6.835686146689970E-2   -2.721017176716166E1    -4.376324112069751E1    -1.914793654869466E1
 1.339303750000000E8    -4.222170863478230E1    -2.110456437663136E1    -6.869852375407945E-2   -2.728641529748068E1    -6.859392351517447E-2   -2.728746549835332E1    -4.370780157148148E1    -1.849592125821234E1
 1.343052500000000E8    -4.231296098086153E1    -2.107861742307612E1    -6.860914493622873E-2   -2.735857970626286E1    -6.830829391620383E-2   -2.736541470473477E1    -4.372127104436910E1    -1.880731645364178E1
 1.346801250000000E8    -4.226907259862980E1    -2.156553916069361E1    -6.789607119668110E-2   -2.743746142801051E1    -6.820502234985008E-2   -2.744277206010308E1    -4.364698183886975E1    -1.915355132743635E1
 1.350550000000000E8    -4.235491616653779E1    -2.161032057478081E1    -6.873503929864874E-2   -2.751595865306540E1    -6.814084584193045E-2   -2.751817111422618E1    -4.358327963219000E1    -1.914108132323973E1
 1.354298750000000E8    -4.235156721443829E1    -2.177444093562271E1    -6.852231018511207E-2   -2.758919306403983E1    -6.772978521340881E-2   -2.759655209044659E1    -4.366347267578807E1    -1.863814884445724E1
 1.358047500000000E8    -4.227561055716475E1    -2.145263990386048E1    -6.833177092181868E-2   -2.766682737234171E1    -6.797448546388965E-2   -2.766988563495718E1    -4.375033037792849E1    -1.923898814168342E1
 1.361796250000000E8    -4.220007861272387E1    -2.244000770876878E1    -6.910581929537656E-2   -2.774626676148470E1    -6.816893120425159E-2   -2.774491792642770E1    -4.375140249785833E1    -1.865106440924033E1
 1.365545000000000E8    -4.231304154058363E1    -2.137212844076665E1    -6.911208703263973E-2   -2.782088101622685E1    -6.851418760982894E-2   -2.781955734657786E1    -4.380228927991116E1    -1.921263128453568E1
 1.369293750000000E8    -4.227599098451023E1    -2.121490589899074E1    -6.884498221703271E-2   -2.789573981344832E1    -6.953853496306811E-2   -2.789524553152344E1    -4.373610440786727E1    -1.896805471580427E1
 1.373042500000000E8    -4.223650768758448E1    -2.177200978847961E1    -6.932975056750787E-2   -2.796919876995155E1    -6.935048378826661E-2   -2.797422306540320E1    -4.363667479019650E1    -1.973961804421144E1
 1.376791250000000E8    -4.230603101796365E1    -2.211507231741748E1    -6.955817848487578E-2   -2.804409972848818E1    -6.896295811727338E-2   -2.804933024362465E1    -4.368259442627428E1    -2.110523635616554E1
 1.380540000000000E8    -4.219637925777668E1    -2.257959036969240E1    -6.881828398092607E-2   -2.812183131780873E1    -6.891788893723326E-2   -2.812538051465358E1    -4.372758623579864E1    -2.110841361206965E1
 1.384288750000000E8    -4.226449054043279E1    -2.203751218701192E1    -6.891608382616088E-2   -2.819532845803424E1    -6.920161113538929E-2   -2.819999859478783E1    -4.386205813460367E1    -2.181953269370343E1
 1.388037500000000E8    -4.214124215234800E1    -2.220447660975010E1    -6.937203321765803E-2   -2.827726773264071E1    -6.866157474279022E-2   -2.827772205442120E1    -4.375961852921564E1    -2.140393630763341E1
 1.391786250000000E8    -4.229862937997051E1    -2.239570692934858E1    -6.916906662196327E-2   -2.835182403587048E1    -6.847913997786835E-2   -2.835197616712912E1    -4.392225778969747E1    -2.052823430715623E1
 1.395535000000000E8    -4.224312744303691E1    -2.244859171123822E1    -6.851448559497669E-2   -2.842687749279851E1    -6.853991059811823E-2   -2.843173918002264E1    -4.375716577770141E1    -2.019804564241309E1
 1.399283750000000E8    -4.223442917165173E1    -2.321067775764864E1    -6.874231531760416E-2   -2.850530812955159E1    -6.868161027458966E-2   -2.850812829460965E1    -4.377264080424972E1    -1.995732576301889E1
 1.403032500000000E8    -4.212712810434116E1    -2.350833952243632E1    -6.924890143656713E-2   -2.858064907095568E1    -6.985489528486695E-2   -2.858357589473572E1    -4.367589275411311E1    -2.075678105760315E1
 1.406781250000000E8    -4.203476553516865E1    -2.247841699447825E1    -6.905191911521005E-2   -2.865585084115136E1    -7.013182376099521E-2   -2.865646835920180E1    -4.383209815407284E1    -2.158122815882530E1
 1.410530000000000E8    -4.214711519537361E1    -2.310972281275754E1    -6.979701200280844E-2   -2.873227469917715E1    -7.005163594063063E-2   -2.873359388182562E1    -4.389498932621943E1    -2.235899086639796E1
 1.414278750000000E8    -4.216958705305731E1    -2.318935900834273E1    -6.989787957389682E-2   -2.880772800565899E1    -6.959993317156560E-2   -2.881301996996583E1    -4.369732094704521E1    -2.224916576548287E1
 1.418027500000000E8    -4.216580768093113E1    -2.262607442063945E1    -6.938633889198298E-2   -2.888145744877652E1    -7.004341871832959E-2   -2.888594778729065E1    -4.365818888476600E1    -2.208837242981894E1
 1.421776250000000E8    -4.206268876505953E1    -2.329067139469268E1    -7.060785469814446E-2   -2.895435890483748E1    -6.981931749937226E-2   -2.896171572371199E1    -4.383757609330273E1    -2.067343703585462E1
 1.425525000000000E8    -4.203273692371334E1    -2.308378199251436E1    -7.041405005480633E-2   -2.903399805635989E1    -6.972530748226853E-2   -2.903847380685835E1    -4.365926392174189E1    -2.086261641913099E1
 1.429273750000000E8    -4.183437906844050E1    -2.323409634843457E1    -7.011203931862010E-2   -2.911276020459821E1    -6.905133531417046E-2   -2.911404094812919E1    -4.380243998421698E1    -2.113997228727698E1
 1.433022500000000E8    -4.201112926968057E1    -2.362308622526226E1    -6.974571455871043E-2   -2.918996989952637E1    -6.973293797508517E-2   -2.919156352627138E1    -4.360287247924256E1    -2.103626823033190E1
 1.436771250000000E8    -4.190914622604370E1    -2.367754524145085E1    -6.979384311652653E-2   -2.926161378835933E1    -6.979963411508734E-2   -2.926607283081271E1    -4.375303849831320E1    -2.300941728814698E1
 1.440520000000000E8    -4.201662403822799E1    -2.343408348653551E1    -6.940382117949394E-2   -2.933693459221257E1    -7.019925163743902E-2   -2.934221404987425E1    -4.401802529648808E1    -2.269239425346413E1
 1.444268750000000E8    -4.190104037181178E1    -2.417896029284204E1    -7.040462372514680E-2   -2.941516349753193E1    -7.039739281266219E-2   -2.941601273691444E1    -4.379040211563033E1    -2.218412016056645E1
 1.448017500000000E8    -4.193250531744263E1    -2.378264019470609E1    -7.096550706490945E-2   -2.949271487134157E1    -7.008451727816124E-2   -2.949425935281020E1    -4.354376248737605E1    -2.205201939436503E1
 1.451766250000000E8    -4.190561374314181E1    -2.409788738594034E1    -7.087174554259389E-2   -2.956881397381478E1    -7.021335654249937E-2   -2.957007265525696E1    -4.355003009626023E1    -2.236887804136575E1
 1.455515000000000E8    -4.192404875679931E1    -2.434194246358784E1    -7.157222033282255E-2   -2.964643307326715E1    -7.112311459723981E-2   -2.964893865114920E1    -4.371429394662435E1    -2.231330603588066E1
 1.459263750000000E8    -4.193164707042351E1    -2.421082151769784E1    -7.113504453148617E-2   -2.972135902699326E1    -7.124364054183428E-2   -2.971892140210702E1    -4.395247895896216E1    -2.294506230520155E1
 1.463012500000000E8    -4.197788755851936E1    -2.367777560771701E1    -7.043008401497927E-2   -2.979754553402049E1    -7.074697433571490E-2   -2.979971927721412E1    -4.370362678429025E1    -2.394132254674616E1
 1.466761250000000E8    -4.193758184440626E1    -2.437050403261498E1    -7.010338819042874E-2   -2.987537344141054E1    -7.100861684874424E-2   -2.987371860698495E1    -4.364135774828647E1    -2.364055403314227E1
 1.470510000000000E8    -4.180964215213532E1    -2.392144019650594E1    -7.096188956780833E-2   -2.994603274747302E1    -7.032615724857867E-2   -2.995082829382781E1    -4.358013839606531E1    -2.418782104227859E1
 1.474258750000000E8    -4.179440685737890E1    -2.392285012147929E1    -7.053812020780480E-2   -3.002489518418491E1    -6.973294396725041E-2   -3.002815780243625E1    -4.380101711522467E1    -2.446538518087528E1
 1.478007500000000E8    -4.191575445519494E1    -2.394223534691988E1    -7.040509078605271E-2   -3.009933486758656E1    -7.001515894570383E-2   -3.010397879703018E1    -4.398152719159477E1    -2.327121856686920E1
 1.481756250000000E8    -4.182212942359892E1    -2.325937400500565E1    -7.014270747440937E-2   -3.017565159156634E1    -7.066406919360610E-2   -3.017694042673124E1    -4.380987334429278E1    -2.420094175539135E1
 1.485505000000000E8    -4.172275145575897E1    -2.440269866147457E1    -7.112397147094003E-2   -3.025282852284884E1    -7.090310116475865E-2   -3.025704185649377E1    -4.384447033159626E1    -2.378048479136775E1
 1.489253750000000E8    -4.166161188910468E1    -2.454833011145312E1    -7.145574570093421E-2   -3.033069384318879E1    -7.115305368204373E-2   -3.032928481399369E1    -4.393516168478229E1    -2.370012738050896E1
 1.493002500000000E8    -4.159066397791711E1    -2.536714949057332E1    -7.101231650972310E-2   -3.040703027881598E1    -7.118281593006028E-2   -3.040882485629963E1    -4.383182018818920E1    -2.388265665865283E1
 1.496751250000000E8    -4.163870080561323E1    -2.540288453676670E1    -7.107857424103789E-2   -3.048508137546560E1    -7.179332937389701E-2   -3.048428079260935E1    -4.381477693408832E1    -2.411875670676498E1
 1.500500000000000E8    -4.160050732026501E1    -2.565188008795268E1    -7.194332055624819E-2   -3.056206557293124E1    -7.121818418348064E-2   -3.056362609430145E1    -4.375855785428102E1    -2.478235539218448E1
 1.504248750000000E8    -4.161908103674474E1    -2.485564097110178E1    -7.111642536036629E-2   -3.063373966520123E1    -7.135962022216633E-2   -3.063774780819744E1    -4.392405674584629E1    -2.508286064309963E1
 1.507997500000000E8    -4.161180922226770E1    -2.455658271279592E1    -7.096396156975081E-2   -3.070961418801422E1    -7.106491876534667E-2   -3.071394584920463E1    -4.387837076229044E1    -2.571658975406659E1
 1.511746250000000E8    -4.162424056549434E1    -2.421203232438920E1    -7.073860314941099E-2   -3.078872132782209E1    -7.161338556159574E-2   -3.078679660872560E1    -4.379537783055545E1    -2.600372638361722E1
 1.515495000000000E8    -4.153227091047536E1    -2.458301115808517E1    -7.151275924569640E-2   -3.086111230551314E1    -7.175699420241628E-2   -3.086566670790431E1    -4.382057368861570E1    -2.591936168610777E1
 1.519243750000000E8    -4.160705374342950E1    -2.594711358018332E1    -7.224099243238277E-2   -3.093767695212367E1    -7.194268828549111E-2   -3.093854966962413E1    -4.370740967163972E1    -2.585976102026590E1
 1.522992500000000E8    -4.159569794580000E1    -2.563642636017106E1    -7.244147174690933E-2   -3.101247381785866E1    -7.124322142199016E-2   -3.101641120019689E1    -4.363456397614672E1    -2.651633210223957E1
 1.526741250000000E8    -4.162456333679234E1    -2.526400745303793E1    -7.307573642709156E-2   -3.109264733769257E1    -7.108550922887209E-2   -3.109511850783335E1    -4.374088818826679E1    -2.500407021054492E1
 1.530490000000000E8    -4.155993967274166E1    -2.548510575947870E1    -7.193003293933525E-2   -3.116567872847422E1    -7.193833595734776E-2   -3.117226132523152E1    -4.381468784175279E1    -2.419009424035407E1
 1.534238750000000E8    -4.152090268383547E1    -2.621838037183981E1    -7.168383543301235E-2   -3.124172945495491E1    -7.194459075861774E-2   -3.124563232250505E1    -4.395672778471905E1    -2.474858816557832E1
 1.537987500000000E8    -4.160006909712786E1    -2.566444014026547E1    -7.186576576861754E-2   -3.131687894299861E1    -7.193854725345777E-2   -3.131768449685824E1    -4.384201803213665E1    -2.521003722750794E1
 1.541736250000000E8    -4.163205023679773E1    -2.560084644053159E1    -7.225425255962976E-2   -3.139241018612953E1    -7.135895627639241E-2   -3.139566450808725E1    -4.366812744388885E1    -2.596172769758246E1
 1.545485000000000E8    -4.154455624130635E1    -2.552968812144760E1    -7.149043143683995E-2   -3.146970838024519E1    -7.173741813887012E-2   -3.147153423128904E1    -4.370993664220375E1    -2.522975588877535E1
 1.549233750000000E8    -4.160527645968215E1    -2.559534287189012E1    -7.270802525037076E-2   -3.154840165730138E1    -7.193138967205952E-2   -3.154876762699913E1    -4.385642268751226E1    -2.527375597586556E1
 1.552982500000000E8    -4.154663354166259E1    -2.628150567356416E1    -7.211308302614960E-2   -3.162547646911381E1    -7.308025583366248E-2   -3.162248754663545E1    -4.392177979149863E1    -2.561291382108811E1
 1.556731250000000E8    -4.153164967995140E1    -2.633478218099795E1    -7.251522246999025E-2   -3.170030016275110E1    -7.269128202148278E-2   -3.170394321212401E1    -4.389525546022287E1    -2.641149374198225E1
 1.560480000000000E8    -4.150095487711176E1    -2.572590211629090E1    -7.121458876114797E-2   -3.177620960030118E1    -7.255615085215844E-2   -3.177692145185772E1    -4.380760551315282E1    -2.692388396066172E1
 1.564228750000000E8    -4.151040238806167E1    -2.606847256274026E1    -7.233689060954811E-2   -3.184928136279364E1    -7.203992571679177E-2   -3.185342707817769E1    -4.385588804891186E1    -2.681932570479544E1
 1.567977500000000E8    -4.154341658568004E1    -2.649635071479629E1    -7.298594642090753E-2   -3.192744430104283E1    -7.241724699645785E-2   -3.192926340585795E1    -4.388704542274274E1    -2.609177925564298E1
 1.571726250000000E8    -4.140455609272070E1    -2.630005102491549E1    -7.269679432996430E-2   -3.200472364227109E1    -7.187719788453195E-2   -3.200551493138583E1    -4.380753930464245E1    -2.667144690768856E1
 1.575475000000000E8    -4.137802474006988E1    -2.589703285146723E1    -7.264997951580293E-2   -3.207953405787843E1    -7.267459939149039E-2   -3.207990657655944E1    -4.379249311240997E1    -2.743433436078258E1
 1.579223750000000E8    -4.141637454613215E1    -2.723613707046161E1    -7.255685937382993E-2   -3.215394082371625E1    -7.259340083898999E-2   -3.215746334353131E1    -4.369618190366268E1    -2.734597091373326E1
 1.582972500000000E8    -4.144822736591914E1    -2.678091958560883E1    -7.207182522126318E-2   -3.222893321207250E1    -7.286914020258999E-2   -3.223206832722055E1    -4.363641154963706E1    -2.852208850217801E1
 1.586721250000000E8    -4.151841055486577E1    -2.648413171318320E1    -7.287323300325399E-2   -3.230921272091820E1    -7.289160445768759E-2   -3.230952996217290E1    -4.367396998252023E1    -2.759442612002309E1
 1.590470000000000E8    -4.137752717561383E1    -2.630299295220835E1    -7.326772047131773E-2   -3.238339045756587E1    -7.405311023213108E-2   -3.238387240780755E1    -4.367170365839841E1    -2.825989680980833E1
 1.594218750000000E8    -4.136870572825119E1    -2.634619083101162E1    -7.310077765092308E-2   -3.245927766326491E1    -7.405390781437161E-2   -3.246014060773906E1    -4.377389521475671E1    -2.801092009991774E1
 1.597967500000000E8    -4.140114413916316E1    -2.690945681578841E1    -7.313424773874566E-2   -3.253569543410081E1    -7.285082933515699E-2   -3.254165469003851E1    -4.373931721549071E1    -2.792413381008590E1
 1.601716250000000E8    -4.146369353135712E1    -2.702789924432255E1    -7.432944347365440E-2   -3.261329474432914E1    -7.241559081484841E-2   -3.261491960871312E1    -4.384564152742292E1    -2.779548965813923E1
 1.605465000000000E8    -4.143397763283234E1    -2.729789622346322E1    -7.344403059153051E-2   -3.269094188549470E1    -7.318468015609494E-2   -3.269043349784322E1    -4.385339917614718E1    -2.779783536836558E1
 1.609213750000000E8    -4.142934744194696E1    -2.843414194072870E1    -7.290857720870693E-2   -3.276711215897580E1    -7.295563005032400E-2   -3.276642269104726E1    -4.394225616831301E1    -2.755049127976696E1
 1.612962500000000E8    -4.135885587197318E1    -2.818557643836127E1    -7.339385465212107E-2   -3.284116972501422E1    -7.296525819032332E-2   -3.284493322407994E1    -4.381080362424629E1    -2.867100037947740E1
 1.616711250000000E8    -4.150799215178735E1    -2.776113670024683E1    -7.329246471954988E-2   -3.291879124025105E1    -7.363004189221384E-2   -3.291890517222729E1    -4.387664161554503E1    -2.897057774853376E1
 1.620460000000000E8    -4.148316136661224E1    -2.747408325288882E1    -7.365266143770950E-2   -3.299085920381295E1    -7.261381471148348E-2   -3.299559608111168E1    -4.368794435234069E1    -2.928637746870397E1
 1.624208750000000E8    -4.134309427923736E1    -2.796362661459376E1    -7.346298384805700E-2   -3.306895046972369E1    -7.301155308137079E-2   -3.307179821233095E1    -4.372106694435908E1    -2.817893657866674E1
 1.627957500000000E8    -4.134672819230072E1    -2.750221838004527E1    -7.352357057954113E-2   -3.314314045878335E1    -7.379579621853166E-2   -3.314734450514103E1    -4.380109191377946E1    -2.810233239209090E1
 1.631706250000000E8    -4.134999968565782E1    -2.757775044604247E1    -7.376398442652544E-2   -3.322282017390224E1    -7.443098961224125E-2   -3.322245246717024E1    -4.375508263730640E1    -2.822410062479165E1
 1.635455000000000E8    -4.140581033402533E1    -2.762643262254175E1    -7.404172781564808E-2   -3.329918633776332E1    -7.314735850444921E-2   -3.330294566759728E1    -4.379804145603724E1    -2.798916621502492E1
 1.639203750000000E8    -4.137074850084807E1    -2.725359943213495E1    -7.382541387776145E-2   -3.337718687009629E1    -7.372647062182819E-2   -3.337891974743621E1    -4.378553289164881E1    -2.862586939950244E1
 1.642952500000000E8    -4.137006866450487E1    -2.760140747371289E1    -7.412283947232769E-2   -3.345075640010892E1    -7.393991154841877E-2   -3.345467905599691E1    -4.379335979252030E1    -2.925256205427681E1
 1.646701250000000E8    -4.139350052311997E1    -2.720383702978888E1    -7.426300144414895E-2   -3.352833080582227E1    -7.380237045171377E-2   -3.353192418639163E1    -4.385515527248760E1    -2.897044337610011E1
 1.650450000000000E8    -4.134492386217008E1    -2.762273722475232E1    -7.378516873542149E-2   -3.360539034554130E1    -7.389743330326712E-2   -3.360545780244587E1    -4.378486120838541E1    -2.884868085599270E1
 1.654198750000000E8    -4.122638587606979E1    -2.763247835558206E1    -7.320552853606625E-2   -3.367931088943890E1    -7.394988716984192E-2   -3.368197224895547E1    -4.389347728709052E1    -2.945994651508206E1
 1.657947500000000E8    -4.129167836887439E1    -2.803687464609509E1    -7.370691294159665E-2   -3.375575861131347E1    -7.447005593343012E-2   -3.375538318596079E1    -4.360211662276110E1    -2.951543468352560E1
 1.661696250000000E8    -4.127127883531118E1    -2.859257259686333E1    -7.382666719370495E-2   -3.383187446750625E1    -7.434871498575227E-2   -3.383190346165648E1    -4.361679983882806E1    -2.914520862263707E1
 1.665445000000000E8    -4.109618198129053E1    -2.905684526760204E1    -7.472152535159320E-2   -3.390550122321903E1    -7.502501453545229E-2   -3.390711971803054E1    -4.362623441408631E1    -2.977349558473906E1
 1.669193750000000E8    -4.124363874037572E1    -2.881986871467740E1    -7.515609758812791E-2   -3.397878403055569E1    -7.425192312116606E-2   -3.398618942987946E1    -4.353322177271237E1    -3.010326897095894E1
 1.672942500000000E8    -4.119779337836285E1    -2.821952250865992E1    -7.448681218854235E-2   -3.405833095912290E1    -7.399753843812887E-2   -3.406261347519740E1    -4.367404590500914E1    -3.055570784338647E1
 1.676691250000000E8    -4.126025777495384E1    -2.842687244024109E1    -7.393539809407099E-2   -3.413535324491844E1    -7.434170999863411E-2   -3.413726766564650E1    -4.392691730663983E1    -2.994731883042555E1
 1.680440000000000E8    -4.127669489990136E1    -2.837470231417373E1    -7.439013605945866E-2   -3.420692982275501E1    -7.374391710496279E-2   -3.421135751292014E1    -4.369148195541580E1    -2.969022406470020E1
 1.684188750000000E8    -4.127935371249296E1    -2.833330407006826E1    -7.392104478528153E-2   -3.428635588513328E1    -7.455371491089111E-2   -3.428908583712311E1    -4.380568394067457E1    -3.022210726130109E1
 1.687937500000000E8    -4.118673401703575E1    -2.812890624354871E1    -7.347612918016186E-2   -3.436050840251792E1    -7.555323314746536E-2   -3.436512420896064E1    -4.365298422482775E1    -3.034901720655784E1
 1.691686250000000E8    -4.121437813524850E1    -2.848283394887654E1    -7.364899630314538E-2   -3.444073864288904E1    -7.491399625937673E-2   -3.444164242322102E1    -4.369111825473284E1    -3.002952191919634E1
 1.695435000000000E8    -4.115249690742247E1    -2.892212831773996E1    -7.487730716665723E-2   -3.451624261710528E1    -7.394150349751889E-2   -3.452184679224428E1    -4.381758677057887E1    -2.994260152808081E1
 1.699183750000000E8    -4.121170550733656E1    -2.886476967613052E1    -7.519752889157327E-2   -3.459692323169126E1    -7.392147352716770E-2   -3.459734159245977E1    -4.359688898732676E1    -3.033234637465540E1
 1.702932500000000E8    -4.116031569312653E1    -2.920071539215524E1    -7.520230782715706E-2   -3.467050953095774E1    -7.471540796047818E-2   -3.467397679507152E1    -4.361369003416428E1    -3.023383970725117E1
 1.706681250000000E8    -4.121766434618687E1    -2.945647471618328E1    -7.485018974072696E-2   -3.474643356979243E1    -7.504875899827833E-2   -3.474921945965733E1    -4.359135351358013E1    -3.047618929884214E1
 1.710430000000000E8    -4.127230058913802E1    -2.904122037545192E1    -7.465821512012885E-2   -3.482176736194598E1    -7.458337721865491E-2   -3.482947226833495E1    -4.379738726734723E1    -3.095072587671285E1
 1.714178750000000E8    -4.121838514262083E1    -2.936874791764418E1    -7.365166403654883E-2   -3.489880443847225E1    -7.459512621592443E-2   -3.490281798829386E1    -4.368413854584386E1    -3.124520532523691E1
 1.717927500000000E8    -4.118004704987368E1    -2.930924076773038E1    -7.457506792635039E-2   -3.497440130188429E1    -7.423453035677573E-2   -3.497627371136987E1    -4.372097391219593E1    -3.155507919340030E1
 1.721676250000000E8    -4.112206287991876E1    -2.901410337724269E1    -7.460600991645015E-2   -3.504995551252095E1    -7.531825681757515E-2   -3.505358780021466E1    -4.370769176069439E1    -3.246665520591463E1
 1.725425000000000E8    -4.116108288186231E1    -2.924095056170969E1    -7.490254564292644E-2   -3.512745428577205E1    -7.547360909620481E-2   -3.512968615585063E1    -4.379842741502834E1    -3.162137527390928E1
 1.729173750000000E8    -4.114803734977102E1    -2.914406332275895E1    -7.492585741538474E-2   -3.520458969439052E1    -7.528769309109172E-2   -3.520376055853983E1    -4.353082997801294E1    -3.044315143962449E1
 1.732922500000000E8    -4.108073364596963E1    -2.932830390393497E1    -7.586560027239415E-2   -3.527617062600142E1    -7.577633782528274E-2   -3.527904762779423E1    -4.359574665635299E1    -3.177495035757071E1
 1.736671250000000E8    -4.114102277457403E1    -2.939225684889069E1    -7.425758029597369E-2   -3.535649909873764E1    -7.577402201926786E-2   -3.535344003567478E1    -4.377585930904215E1    -3.225343792913187E1
 1.740420000000000E8    -4.109278560229238E1    -3.032127220679006E1    -7.447913281676580E-2   -3.542758300111397E1    -7.633769912251567E-2   -3.542808148060271E1    -4.363170186090714E1    -3.287451489637068E1
 1.744168750000000E8    -4.109511852808001E1    -2.897669457711303E1    -7.540756637571618E-2   -3.550564519050825E1    -7.447325362039156E-2   -3.550595342055039E1    -4.357948744816012E1    -3.331503929227041E1
 1.747917500000000E8    -4.096395601021689E1    -2.972474443103790E1    -7.571086383670522E-2   -3.557820473707147E1    -7.463847312573055E-2   -3.558275644190152E1    -4.364505932401789E1    -3.351960339970339E1
 1.751666250000000E8    -4.101221132977840E1    -2.938314432942066E1    -7.498392419876228E-2   -3.565591268337822E1    -7.548777086726687E-2   -3.565684922329310E1    -4.350744613146638E1    -3.330497157521153E1
 1.755415000000000E8    -4.105531390671943E1    -2.987561260548787E1    -7.493691739540669E-2   -3.573541617376342E1    -7.626084572280546E-2   -3.573339181754869E1    -4.365295864882113E1    -3.325202073622735E1
 1.759163750000000E8    -4.110605140828129E1    -3.033778277545732E1    -7.520415708065165E-2   -3.581312263478268E1    -7.637737972185100E-2   -3.581088567001797E1    -4.397317665518949E1    -3.312101481674308E1
 1.762912500000000E8    -4.110248126174874E1    -3.025841156255403E1    -7.593697839472824E-2   -3.588725749503140E1    -7.486443379159345E-2   -3.589008264423902E1    -4.369247601924540E1    -3.336176765571179E1
 1.766661250000000E8    -4.107677312583735E1    -3.032294421027531E1    -7.642145740596631E-2   -3.596022868230939E1    -7.452261558186006E-2   -3.596442867375166E1    -4.357991232524669E1    -3.401120649607250E1
 1.770410000000000E8    -4.108632435699996E1    -3.079806984058294E1    -7.510048575552350E-2   -3.603884051659860E1    -7.597480914685895E-2   -3.604031241193255E1    -4.390152259028089E1    -3.328459473973736E1
 1.774158750000000E8    -4.110231821765549E1    -3.100921735552862E1    -7.472565981140619E-2   -3.611595377863241E1    -7.543417460993672E-2   -3.611705850270820E1    -4.388545729076419E1    -3.314347679524516E1
 1.777907500000000E8    -4.110603476446346E1    -3.066463289446482E1    -7.624753482272043E-2   -3.619378641794937E1    -7.567877385726111E-2   -3.619375365746554E1    -4.372826462964590E1    -3.310436955387964E1
 1.781656250000000E8    -4.113208171423260E1    -3.063535799336300E1    -7.597402614804502E-2   -3.626734139054363E1    -7.586258136465465E-2   -3.627098722030157E1    -4.360336403385824E1    -3.465908992512493E1
 1.785405000000000E8    -4.111929725174378E1    -3.076403555465249E1    -7.593034865023657E-2   -3.634421662269679E1    -7.551373422119401E-2   -3.634542581059069E1    -4.368607966775117E1    -3.392047276750682E1
 1.789153750000000E8    -4.117339027697555E1    -3.135960634135895E1    -7.576734402383738E-2   -3.642048707808085E1    -7.572783929590444E-2   -3.642016248143437E1    -4.377190954893473E1    -3.484300669202686E1
 1.792902500000000E8    -4.110958430246536E1    -3.087393254398737E1    -7.536594453399637E-2   -3.649517979861311E1    -7.637816080205592E-2   -3.649730069433393E1    -4.375204898991182E1    -3.437623754110688E1
 1.796651250000000E8    -4.108570405662868E1    -3.077951180855902E1    -7.581243039341179E-2   -3.657025703696675E1    -7.593305183145435E-2   -3.657323040501954E1    -4.367906433022504E1    -3.470034391671235E1
 1.800400000000000E8    -4.106419504764612E1    -3.107195010669658E1    -7.554124535324581E-2   -3.664385064094306E1    -7.597314741855914E-2   -3.664907578504431E1    -4.367703236398878E1    -3.505799457032501E1
 1.804148750000000E8    -4.112194488759152E1    -3.083658346090431E1    -7.579847036718904E-2   -3.672658564348664E1    -7.632614569965601E-2   -3.672876404240007E1    -4.383685415946195E1    -3.470234115042187E1
 1.807897500000000E8    -4.104583223072456E1    -3.089146174080776E1    -7.659461548494650E-2   -3.680039604226721E1    -7.583674349214649E-2   -3.680467106425857E1    -4.380681307828820E1    -3.399000273154638E1
 1.811646250000000E8    -4.104215577250339E1    -3.042310963858494E1    -7.599874101892300E-2   -3.687870618393622E1    -7.612711985850232E-2   -3.688255679288724E1    -4.378190338837737E1    -3.466832736141292E1
 1.815395000000000E8    -4.107165561349531E1    -3.174229601766826E1    -7.660639729812400E-2   -3.694977340040204E1    -7.638999274049789E-2   -3.695251781088857E1    -4.361974426206255E1    -3.561127950818172E1
 1.819143750000000E8    -4.105145681967976E1    -3.137450214883149E1    -7.686369694368317E-2   -3.702434342313655E1    -7.584907081618771E-2   -3.702824301202602E1    -4.368296691015929E1    -3.611556579119273E1
 1.822892500000000E8    -4.110297724657305E1    -3.226812638618985E1    -7.613019487874707E-2   -3.710075252945290E1    -7.637830692074621E-2   -3.710532730339439E1    -4.365359449945144E1    -3.533824632797403E1
 1.826641250000000E8    -4.096691360130418E1    -3.220629228705901E1    -7.627806903807757E-2   -3.718058520363014E1    -7.684388371073983E-2   -3.718202884476674E1    -4.371631438358632E1    -3.471324366022139E1
 1.830390000000000E8    -4.098126856384346E1    -3.236111371526206E1    -7.673709234865439E-2   -3.725521216914469E1    -7.626351913558616E-2   -3.726247120807490E1    -4.370642082808047E1    -3.377224313589014E1
 1.834138750000000E8    -4.091360070325696E1    -3.205882737472022E1    -7.589094825518101E-2   -3.733567897727645E1    -7.632970927580253E-2   -3.733627197212751E1    -4.391854149708710E1    -3.373196814504075E1
 1.837887500000000E8    -4.112945440171161E1    -3.238109656975163E1    -7.699309788259681E-2   -3.740993007110943E1    -7.600080022808442E-2   -3.741505318681642E1    -4.369166285067519E1    -3.496903445786126E1
 1.841636250000000E8    -4.110770189309390E1    -3.191076858669264E1    -7.756563170654629E-2   -3.748513709337897E1    -7.588625651800276E-2   -3.749211060735392E1    -4.360849809161284E1    -3.612964016500020E1
 1.845385000000000E8    -4.105284749871625E1    -3.203162365799924E1    -7.676472777350460E-2   -3.756193244578257E1    -7.662694643321402E-2   -3.756730266018245E1    -4.364144280230579E1    -3.584392203790636E1
 1.849133750000000E8    -4.091875529648825E1    -3.277484099354584E1    -7.753227519151966E-2   -3.763678158417467E1    -7.670115174433628E-2   -3.764168257437118E1    -4.391022718997245E1    -3.536304521478907E1
 1.852882500000000E8    -4.107406851511112E1    -3.239175499030105E1    -7.775778954214471E-2   -3.771440846617895E1    -7.677368011360447E-2   -3.771470632861643E1    -4.359010402686117E1    -3.560483298308588E1
 1.856631250000000E8    -4.108795734739059E1    -3.273995042871448E1    -7.831363803798927E-2   -3.778738997203548E1    -7.565913032564316E-2   -3.779323799835223E1    -4.350030643861384E1    -3.654723225343808E1
 1.860380000000000E8    -4.092942403261651E1    -3.224837245294663E1    -7.689608421524398E-2   -3.786572218218566E1    -7.744846866985577E-2   -3.786507207723884E1    -4.351076625672812E1    -3.600495852689507E1
 1.864128750000000E8    -4.100337812291778E1    -3.277235694758351E1    -7.724018323643984E-2   -3.794156914556948E1    -7.690479330460873E-2   -3.794251968619595E1    -4.349086810431177E1    -3.575463462353668E1
 1.867877500000000E8    -4.090102439947487E1    -3.250902602355733E1    -7.742364769336813E-2   -3.801349598864926E1    -7.735802836433119E-2   -3.801771409873752E1    -4.355286824221464E1    -3.540444289069595E1
 1.871626250000000E8    -4.096786046870492E1    -3.307828855709627E1    -7.803242403976240E-2   -3.809105171374914E1    -7.733983193754465E-2   -3.809513930216630E1    -4.351370614533784E1    -3.551703005812874E1
 1.875375000000000E8    -4.095746153744352E1    -3.247621866876395E1    -7.754939639103292E-2   -3.816699041020367E1    -7.702575349555896E-2   -3.816771125829826E1    -4.366561852335947E1    -3.718443944612338E1
 1.879123750000000E8    -4.088640418086576E1    -3.321187474064182E1    -7.763037016729349E-2   -3.823999235523598E1    -7.583508148117986E-2   -3.824346331094853E1    -4.348422848792558E1    -3.713150438667356E1
 1.882872500000000E8    -4.095712700833988E1    -3.261345754474338E1    -7.690550541769524E-2   -3.832038832713582E1    -7.694137227334955E-2   -3.832143157029206E1    -4.348428361528589E1    -3.744715028909365E1
 1.886621250000000E8    -4.105133380933207E1    -3.334089594320774E1    -7.654428078472379E-2   -3.839837927079392E1    -7.670066524395283E-2   -3.839876391785207E1    -4.347214922381190E1    -3.665759873540404E1
 1.890370000000000E8    -4.098352071971404E1    -3.411058817603898E1    -7.790446102374313E-2   -3.847319573941719E1    -7.675218765933228E-2   -3.847694122261223E1    -4.340047757195041E1    -3.675327666918779E1
 1.894118750000000E8    -4.098448640743819E1    -3.393497084246024E1    -7.753264989985448E-2   -3.855104838090246E1    -7.772320930686248E-2   -3.855122589716633E1    -4.337325190961521E1    -3.725764391976065E1
 1.897867500000000E8    -4.082559941285734E1    -3.318607891464672E1    -7.763228670123214E-2   -3.862738359755735E1    -7.797358888250816E-2   -3.862803934735953E1    -4.352605086543317E1    -3.798891148392059E1
 1.901616250000000E8    -4.083625603883748E1    -3.402063650119744E1    -7.796049143198006E-2   -3.870490814540220E1    -7.758968391612961E-2   -3.870377344125137E1    -4.354806029485049E1    -3.798545159481418E1
 1.905365000000000E8    -4.094899234923767E1    -3.403344503933931E1    -7.731017574474337E-2   -3.878044296066627E1    -7.780393754271196E-2   -3.878360038498604E1    -4.340773237277052E1    -3.796350952398853E1
 1.909113750000000E8    -4.086267252810697E1    -3.427245869848996E1    -7.808252636384411E-2   -3.885557841143830E1    -7.750771399776173E-2   -3.885741994640203E1    -4.336779025389433E1    -3.799612287137555E1
 1.912862500000000E8    -4.097231034503527E1    -3.513234413113575E1    -7.859618513443206E-2   -3.893453427719925E1    -7.831442130172042E-2   -3.893262255274087E1    -4.347060306701047E1    -3.692077659494384E1
 1.916611250000000E8    -4.084243987820017E1    -3.459248530754449E1    -7.835442630692235E-2   -3.901064559665548E1    -7.873892913572647E-2   -3.901281894763689E1    -4.390718730420107E1    -3.638057881196935E1
 1.920360000000000E8    -4.093529170912937E1    -3.516415744611497E1    -7.911651494940372E-2   -3.908748015964219E1    -7.891806961872423E-2   -3.908965182356483E1    -4.398796408449235E1    -3.496839569009925E1
 1.924108750000000E8    -4.089424581196568E1    -3.504923580040800E1    -7.929294009601842E-2   -3.916227610563149E1    -7.839244469836937E-2   -3.916383091017107E1    -4.383244972175607E1    -3.632436682033803E1
 1.927857500000000E8    -4.089138589888715E1    -3.445737093877391E1    -7.804818449142645E-2   -3.923797125386493E1    -7.908607544281834E-2   -3.924198651574808E1    -4.358965110763590E1    -3.661474771222538E1
 1.931606250000000E8    -4.078222252343497E1    -3.461908202637741E1    -7.758484035806755E-2   -3.931559878938079E1    -7.899885272312475E-2   -3.931605345334199E1    -4.350073798502027E1    -3.780252288085286E1
 1.935355000000000E8    -4.076481453173599E1    -3.493259470714451E1    -7.851904004510232E-2   -3.938902261901270E1    -7.823050916847227E-2   -3.939087308937111E1    -4.350345666930786E1    -3.901171449519975E1
 1.939103750000000E8    -4.092541035020525E1    -3.480718037866929E1    -7.820727480036078E-2   -3.946355331504359E1    -7.832212468060593E-2   -3.946456264290157E1    -4.332877816116405E1    -3.936544215621374E1
 1.942852500000000E8    -4.096288253698568E1    -3.461898740523349E1    -7.843499589006336E-2   -3.954124638221577E1    -7.886142955438893E-2   -3.954456568577698E1    -4.346655485712431E1    -3.955736164004422E1
 1.946601250000000E8    -4.092760774109603E1    -3.482683120282444E1    -7.925588886942955E-2   -3.961513792742047E1    -7.785582895035388E-2   -3.961821455809046E1    -4.322755342087915E1    -3.882533121602074E1
 1.950350000000000E8    -4.089263756080171E1    -3.458490438843768E1    -7.849167969722007E-2   -3.969240315045426E1    -7.840834275928074E-2   -3.969746006970655E1    -4.327201156374709E1    -3.821347498794517E1
 1.954098750000000E8    -4.078392701062172E1    -3.466051532979844E1    -7.840580189682728E-2   -3.976668210118092E1    -7.832432055452630E-2   -3.977271468953450E1    -4.342796207470798E1    -3.894209283735496E1
 1.957847500000000E8    -4.088172827976337E1    -3.535820984926970E1    -7.853634813351434E-2   -3.984185827888511E1    -7.821281382366640E-2   -3.984661320926627E1    -4.326661452923624E1    -3.897021960550718E1
 1.961596250000000E8    -4.072404612129944E1    -3.542091535842426E1    -7.877470926811606E-2   -3.991682424028210E1    -7.859243952398466E-2   -3.992178678462837E1    -4.341953502197740E1    -3.893034695169256E1
 1.965345000000000E8    -4.073409650712507E1    -3.573022945226398E1    -7.760809247206191E-2   -3.999171156634504E1    -7.916581870065106E-2   -3.999714166560805E1    -4.339196296677873E1    -3.986064361194664E1
 1.969093750000000E8    -4.072941744556523E1    -3.560837455693826E1    -7.843136420757173E-2   -4.006881222816342E1    -7.886717482647279E-2   -4.007267200822352E1    -4.358777698380449E1    -3.975072063498591E1
 1.972842500000000E8    -4.072335242651874E1    -3.642720553634386E1    -7.927753428231693E-2   -4.014704154051390E1    -7.847942158616771E-2   -4.014792162852230E1    -4.351967054680860E1    -4.012423952058816E1
 1.976591250000000E8    -4.087280977108827E1    -3.605276251031354E1    -7.821615640188165E-2   -4.022276810232044E1    -7.875365593356977E-2   -4.022390309009354E1    -4.329499861186802E1    -3.887145890667561E1
 1.980340000000000E8    -4.083859952733995E1    -3.544985779415870E1    -7.843327815020779E-2   -4.030303384825930E1    -7.905946662811203E-2   -4.030479208282185E1    -4.358561092037226E1    -3.951268228313422E1
 1.984088750000000E8    -4.079451929034150E1    -3.608186270069277E1    -7.917033430283937E-2   -4.037732785297695E1    -7.926920773607493E-2   -4.037810370776057E1    -4.351000603412859E1    -3.945802637149876E1
 1.987837500000000E8    -4.070639860150150E1    -3.561871313779844E1    -7.942666678080609E-2   -4.045145843652510E1    -8.046010441289955E-2   -4.045428295398343E1    -4.324345637456300E1    -4.047232796693823E1
 1.991586250000000E8    -4.066855164488364E1    -3.579423432577985E1    -7.922032815781911E-2   -4.053149889890042E1    -7.941203185535123E-2   -4.053286627428109E1    -4.338029231162938E1    -3.990315676236403E1
 1.995335000000000E8    -4.075825906288727E1    -3.588737985961873E1    -7.881600853902786E-2   -4.060518100501869E1    -7.860267332541908E-2   -4.060934629102242E1    -4.320069170633927E1    -3.969358738940938E1
 1.999083750000000E8    -4.082866765728387E1    -3.607930387472876E1    -7.831077523722532E-2   -4.068106127176515E1    -7.913570216767002E-2   -4.068291937753332E1    -4.301735981617072E1    -4.052455952164761E1
 2.002832500000000E8    -4.073493856651417E1    -3.608422069274687E1    -7.869195962061729E-2   -4.075879431573818E1    -8.012313842007271E-2   -4.075800618551055E1    -4.313003390541837E1    -4.018629701632621E1
 2.006581250000000E8    -4.076032202720350E1    -3.612063257697638E1    -7.949766123011140E-2   -4.083505794385594E1    -7.928073093089871E-2   -4.083594498434908E1    -4.354373544673458E1    -3.978355874017738E1
 2.010330000000000E8    -4.084210911301867E1    -3.626224011811556E1    -7.969990707128888E-2   -4.090950627920345E1    -7.924695417144886E-2   -4.091391765306162E1    -4.327228020679259E1    -3.981178326204824E1
 2.014078750000000E8    -4.078489423342581E1    -3.667150197168784E1    -7.902030718457929E-2   -4.098744917685205E1    -7.887578169321620E-2   -4.099221845218501E1    -4.332422739958999E1    -3.991033698210197E1
 2.017827500000000E8    -4.077605144895925E1    -3.647659175084210E1    -7.982766968580969E-2   -4.106821282233504E1    -7.881291282369585E-2   -4.106796040885083E1    -4.333319299572545E1    -3.981765318772107E1
 2.021576250000000E8    -4.070622981779827E1    -3.649288071808886E1    -7.948905458645843E-2   -4.114210396862644E1    -7.971872533304210E-2   -4.114386436763987E1    -4.331329831417959E1    -4.068101126315231E1
 2.025325000000000E8    -4.067093134004295E1    -3.662255919770739E1    -7.957084217751396E-2   -4.121554432487274E1    -7.959017523820909E-2   -4.121946758640212E1    -4.335507135158262E1    -4.097836931378350E1
 2.029073750000000E8    -4.082522950093903E1    -3.669748592085933E1    -7.986972179680107E-2   -4.129004598210059E1    -7.935246137445361E-2   -4.129087447476856E1    -4.343188452238372E1    -4.150406284084846E1
 2.032822500000000E8    -4.068422079383919E1    -3.656279666624519E1    -7.929389159995301E-2   -4.136490902136012E1    -7.872272870988964E-2   -4.136929504884731E1    -4.341374931803726E1    -4.151050465647020E1
 2.036571250000000E8    -4.071110909581776E1    -3.774634072942320E1    -7.975993253661884E-2   -4.144375359755362E1    -8.076039865659150E-2   -4.144602023165532E1    -4.345223964794108E1    -4.180640299630537E1
 2.040320000000000E8    -4.074758298617706E1    -3.856960372216331E1    -7.982235265598629E-2   -4.152195767708953E1    -8.036417891325667E-2   -4.151960977180719E1    -4.334229891785596E1    -4.136069027158354E1
 2.044068750000000E8    -4.076462965266434E1    -3.812762363153159E1    -7.912361590145725E-2   -4.159585408362628E1    -8.017902226114396E-2   -4.159621229698688E1    -4.335506707468201E1    -4.131263691524459E1
 2.047817500000000E8    -4.077753556565601E1    -3.817998287954933E1    -7.987822750151065E-2   -4.167103720404732E1    -7.991435733628606E-2   -4.167502225859893E1    -4.302049907514735E1    -4.113375220981457E1
 2.051566250000000E8    -4.065486495375434E1    -3.817194180314466E1    -8.059050000926787E-2   -4.174853082198528E1    -7.980555687863641E-2   -4.175133704633091E1    -4.328825753272729E1    -3.990045353017750E1
 2.055315000000000E8    -4.071228795589779E1    -3.807705279637489E1    -8.020686221216847E-2   -4.182523867521845E1    -8.034725124209614E-2   -4.182851459235859E1    -4.321545911014422E1    -4.128830063369877E1
 2.059063750000000E8    -4.074321017663828E1    -3.832248486228566E1    -8.074907677423318E-2   -4.190100839232167E1    -8.033464285015425E-2   -4.190120320373418E1    -4.311520437821905E1    -4.218580185218081E1
 2.062812500000000E8    -4.068591878545369E1    -3.827837938650210E1    -8.066177486290475E-2   -4.197558904651101E1    -8.032111126420594E-2   -4.197852055480893E1    -4.312490682698076E1    -4.255049210683114E1
 2.066561250000000E8    -4.065535819043977E1    -3.821699327480221E1    -8.094682474351840E-2   -4.205170755954543E1    -8.014563425429902E-2   -4.205549265769030E1    -4.298320636849900E1    -4.281376302672997E1
 2.070310000000000E8    -4.057750370424160E1    -3.838714706905719E1    -7.895113290555324E-2   -4.212730483678356E1    -8.077036340317673E-2   -4.212734028354228E1    -4.305428970393373E1    -4.198739275352495E1
 2.074058750000000E8    -4.057486970961966E1    -3.819708759800780E1    -8.115011968498401E-2   -4.220531350009202E1    -8.118568508477134E-2   -4.220574471338026E1    -4.314083502027720E1    -4.232149971557267E1
 2.077807500000000E8    -4.058293612478009E1    -3.849382741561085E1    -8.114296612317705E-2   -4.228303245728394E1    -8.137478564146405E-2   -4.228274461386467E1    -4.327620911179993E1    -4.289481469454181E1
 2.081556250000000E8    -4.065639151707760E1    -3.780669564171938E1    -8.232018909607125E-2   -4.235734581128688E1    -8.061223385167965E-2   -4.235902250347091E1    -4.301119897532416E1    -4.383575325468136E1
 2.085305000000000E8    -4.071019407331001E1    -3.832744993260867E1    -8.109138555308956E-2   -4.242646461630199E1    -8.145581094223579E-2   -4.243089656537820E1    -4.317124030369173E1    -4.342570012556341E1
 2.089053750000000E8    -4.070401556692772E1    -3.871447004504530E1    -8.082800273184931E-2   -4.249887465469691E1    -8.133268800153043E-2   -4.250195878744441E1    -4.313905584209300E1    -4.387501375524249E1
 2.092802500000000E8    -4.076231562064595E1    -3.864789048916200E1    -8.103775350290265E-2   -4.257538804620796E1    -8.085378758910106E-2   -4.257749422658132E1    -4.304287491743927E1    -4.412149739150080E1
 2.096551250000000E8    -4.072521933409191E1    -3.873390292080343E1    -8.066967075694077E-2   -4.265501928550847E1    -8.095572576139307E-2   -4.265479834695791E1    -4.311113310080822E1    -4.365168524862427E1
 2.100300000000000E8    -4.071141325206629E1    -3.951688982784056E1    -8.092235150481671E-2   -4.272853093196976E1    -8.072158082094953E-2   -4.273524647227639E1    -4.292665277184224E1    -4.360895515584769E1
 2.104048750000000E8    -4.074941814091456E1    -3.990153507566976E1    -8.050006598263464E-2   -4.280745441950321E1    -8.079560662740004E-2   -4.280799380465601E1    -4.296169026431002E1    -4.420959975854564E1
 2.107797500000000E8    -4.074947582768747E1    -4.021017665318097E1    -8.059652384889744E-2   -4.288539019834298E1    -8.128298952099808E-2   -4.288428628963491E1    -4.302084288830866E1    -4.463742628992824E1
 2.111546250000000E8    -4.084159179217540E1    -4.064406461997677E1    -8.094627395840043E-2   -4.295834303007858E1    -8.109011685742581E-2   -4.296217765693110E1    -4.304045444467740E1    -4.479126190548065E1
 2.115295000000000E8    -4.076660408320593E1    -3.987266134228208E1    -8.042294799527047E-2   -4.303551066006696E1    -8.079502206477612E-2   -4.303422899640174E1    -4.298112365749201E1    -4.479636587316002E1
 2.119043750000000E8    -4.074759165908080E1    -4.041181965863505E1    -8.087935255889508E-2   -4.310863902269996E1    -8.044500041781802E-2   -4.311216657135828E1    -4.298553124990026E1    -4.499035977734826E1
 2.122792500000000E8    -4.073405551738563E1    -4.063473190841653E1    -8.069795756630480E-2   -4.318325215974178E1    -8.044815175795243E-2   -4.318657978230184E1    -4.312027888934097E1    -4.476357117768296E1
 2.126541250000000E8    -4.074197686621842E1    -4.010090781896987E1    -8.073533598881996E-2   -4.326098444412625E1    -8.107092304192377E-2   -4.326232229722358E1    -4.313339240340400E1    -4.518918906404355E1
 2.130290000000000E8    -4.074131853888935E1    -4.082679155356645E1    -8.120900769431165E-2   -4.333704554091999E1    -8.124984231425031E-2   -4.333446091413254E1    -4.297942056852701E1    -4.476001387876742E1
 2.134038750000000E8    -4.078391023906610E1    -4.077368271815105E1    -8.124501772176211E-2   -4.340843933337077E1    -8.066023838511047E-2   -4.341331713167953E1    -4.294144535720900E1    -4.514462417221751E1
 2.137787500000000E8    -4.091948184522206E1    -4.088314173820611E1    -8.018009689645966E-2   -4.348714249842119E1    -8.064021692295181E-2   -4.349048997848610E1    -4.301356660573604E1    -4.482054568225962E1
 2.141536250000000E8    -4.094260232296443E1    -4.078095306437916E1    -7.971735684623282E-2   -4.356389114137829E1    -8.149874053367866E-2   -4.356417607556778E1    -4.293707138836139E1    -4.494334238746500E1
 2.145285000000000E8    -4.077505149507970E1    -4.081919231810098E1    -7.983113528142462E-2   -4.364352145541619E1    -8.153460696026084E-2   -4.364212013461169E1    -4.302753507933144E1    -4.576146228751325E1
 2.149033750000000E8    -4.069372658388870E1    -4.100693878485539E1    -8.104231093833850E-2   -4.372015758097641E1    -8.136329715393888E-2   -4.372023544274923E1    -4.301101264094734E1    -4.623785862664084E1
 2.152782500000000E8    -4.083969547663249E1    -4.110014240923688E1    -8.124390980830268E-2   -4.379362334884757E1    -8.128770174914425E-2   -4.379718688682478E1    -4.304948567887114E1    -4.590436363163852E1
 2.156531250000000E8    -4.083901166742432E1    -4.114959447026794E1    -8.080205426314696E-2   -4.387164955631165E1    -8.000192099850144E-2   -4.387327913174491E1    -4.338606016310490E1    -4.473043201865172E1
 2.160280000000000E8    -4.079518820741156E1    -4.127865697730089E1    -8.021025715926500E-2   -4.394763137550242E1    -8.022034345281136E-2   -4.394890969525978E1    -4.317875611099297E1    -4.519017200256800E1
 2.164028750000000E8    -4.081014294996188E1    -4.135376307474765E1    -8.061979049066492E-2   -4.402115330653805E1    -8.104080169498623E-2   -4.402592741888898E1    -4.301547868074967E1    -4.583221391196772E1
 2.167777500000000E8    -4.071196619408720E1    -4.136911909046656E1    -8.138034653665778E-2   -4.409674212252607E1    -8.076180329971662E-2   -4.410116326886527E1    -4.290587799422966E1    -4.686780758763886E1
 2.171526250000000E8    -4.081549836017192E1    -4.136709046538972E1    -8.120599616097005E-2   -4.417374232399013E1    -8.120951656607785E-2   -4.417793960366613E1    -4.295696998794025E1    -4.687571848487998E1
 2.175275000000000E8    -4.082518149514328E1    -4.164829636139336E1    -8.131464617217811E-2   -4.425263957491745E1    -8.050259149630117E-2   -4.425334694323907E1    -4.314468182591335E1    -4.621929884956752E1
 2.179023750000000E8    -4.084074668614670E1    -4.206518941134705E1    -8.124916562118226E-2   -4.432346068804212E1    -8.150995149138526E-2   -4.432913649294716E1    -4.299209483332244E1    -4.578141504276922E1
 2.182772500000000E8    -4.074005989616055E1    -4.205243744664432E1    -8.140126955423646E-2   -4.440050909665377E1    -8.097605535407046E-2   -4.440373049938603E1    -4.301909654547088E1    -4.594726280330416E1
 2.186521250000000E8    -4.075180250425102E1    -4.234496757765313E1    -8.046786841588863E-2   -4.447420203107659E1    -8.008096793846894E-2   -4.448092367246333E1    -4.308468999626564E1    -4.646322797341242E1
 2.190270000000000E8    -4.078196699858232E1    -4.234933518381263E1    -8.040338815422429E-2   -4.455106842788476E1    -8.065566426589935E-2   -4.455299850383716E1    -4.312487507689234E1    -4.673550241775042E1
 2.194018750000000E8    -4.089049734356138E1    -4.269477602209357E1    -8.080008407058713E-2   -4.462956090428752E1    -8.071735329758412E-2   -4.463134295066566E1    -4.308850960394794E1    -4.697421511950478E1
 2.197767500000000E8    -4.090526226366421E1    -4.239288137724257E1    -8.077639904409203E-2   -4.470542797189449E1    -8.025243247403777E-2   -4.470888713701439E1    -4.290302772987354E1    -4.770247143431842E1
 2.201516250000000E8    -4.087791526107581E1    -4.232011597160412E1    -8.141562155297621E-2   -4.478196571747023E1    -8.064016978336966E-2   -4.478530236796126E1    -4.298085479204068E1    -4.710335654299568E1
 2.205265000000000E8    -4.085094673222059E1    -4.244557966083119E1    -8.091754622713097E-2   -4.485989196401119E1    -8.095578089042388E-2   -4.486139279462897E1    -4.290111929176629E1    -4.781437966195667E1
 2.209013750000000E8    -4.077035001281946E1    -4.232855959674624E1    -8.102660355685064E-2   -4.493950370534154E1    -8.074443021974520E-2   -4.494099724835404E1    -4.280235031982726E1    -4.818780873594960E1
 2.212762500000000E8    -4.079682362289440E1    -4.233203964984049E1    -8.186901188813581E-2   -4.501408701189008E1    -8.121700023283869E-2   -4.501390674128202E1    -4.296678405912630E1    -4.786110280131466E1
 2.216511250000000E8    -4.075906289192908E1    -4.246961571574283E1    -8.139552152916757E-2   -4.508992359295217E1    -8.102212765931577E-2   -4.508860459128633E1    -4.289456710711672E1    -4.744892469512779E1
 2.220260000000000E8    -4.085665959528357E1    -4.182826159798586E1    -8.168199229858514E-2   -4.516481154908570E1    -8.133091085649821E-2   -4.516506578018424E1    -4.290500504214313E1    -4.790184977463061E1
 2.224008750000000E8    -4.085181283371131E1    -4.221234499132231E1    -8.296002677696286E-2   -4.523781736663096E1    -8.152404038760408E-2   -4.524296786046914E1    -4.289395956448350E1    -4.780040674801417E1
 2.227757500000000E8    -4.089108282248630E1    -4.247402565946675E1    -8.176837808501491E-2   -4.531506528894586E1    -8.182595118756235E-2   -4.531962197587114E1    -4.280310338667491E1    -4.766196992357408E1
 2.231506250000000E8    -4.089935860644354E1    -4.232693742751010E1    -8.120956142312727E-2   -4.539467308061620E1    -8.115826413071071E-2   -4.539631588830366E1    -4.290116250529701E1    -4.790155480398612E1
 2.235255000000000E8    -4.090216500075249E1    -4.220211409905896E1    -8.173211495751645E-2   -4.547099291800524E1    -8.135939187987544E-2   -4.547130224800155E1    -4.286293915329000E1    -4.820688406023004E1
 2.239003750000000E8    -4.087346119183270E1    -4.266731572571063E1    -8.143015987440674E-2   -4.554705403654098E1    -8.118084081069828E-2   -4.555004147754786E1    -4.287011146759102E1    -4.718584858575505E1
 2.242752500000000E8    -4.090521569051170E1    -4.271057293289410E1    -8.132696885820503E-2   -4.562229265891129E1    -8.107733573103407E-2   -4.562449208217299E1    -4.278098007482016E1    -4.758187778928102E1
 2.246501250000000E8    -4.072366237885731E1    -4.232341784489083E1    -8.267046512646950E-2   -4.569812696002899E1    -8.093050085252267E-2   -4.570236652269587E1    -4.288413675510760E1    -4.766233574883940E1
 2.250250000000000E8    -4.073709417243808E1    -4.244796901506276E1    -8.143968965944612E-2   -4.577319951788370E1    -8.165717447354429E-2   -4.577626780607579E1    -4.278718357266659E1    -4.766684326141182E1
 2.253998750000000E8    -4.085084687706040E1    -4.267372246473806E1    -8.127671069404366E-2   -4.585045637949374E1    -8.114982149249830E-2   -4.584884787220716E1    -4.269768881843527E1    -4.821704836608576E1
 2.257747500000000E8    -4.090269445953598E1    -4.308362727171772E1    -8.195076893171603E-2   -4.592603698779016E1    -8.216253295181249E-2   -4.592538723789990E1    -4.284058197482062E1    -4.927954201670028E1
 2.261496250000000E8    -4.093739854468475E1    -4.323151178214693E1    -8.221295010266880E-2   -4.600184983376584E1    -8.165275099433204E-2   -4.600320287836613E1    -4.293113691578782E1    -4.900954897258337E1
 2.265245000000000E8    -4.087847599535085E1    -4.355068717931363E1    -8.249948232882635E-2   -4.607783760888887E1    -8.109238409158573E-2   -4.607995924504592E1    -4.294420622890966E1    -4.847245266706521E1
 2.268993750000000E8    -4.087823105633142E1    -4.371837172044867E1    -8.187757726219645E-2   -4.615757160626645E1    -8.064782243246268E-2   -4.615795001179647E1    -4.297725312108318E1    -4.717920378872707E1
 2.272742500000000E8    -4.095076149256928E1    -4.376132347300926E1    -8.229714794598988E-2   -4.623043722825112E1    -8.176530826746950E-2   -4.623344198065090E1    -4.278697682004450E1    -4.761707847585473E1
 2.276491250000000E8    -4.087610059573286E1    -4.411771903473761E1    -8.224952696657836E-2   -4.630580646011681E1    -8.175337122275123E-2   -4.630811016934231E1    -4.275407211527685E1    -4.852451216118730E1
 2.280240000000000E8    -4.082897277999797E1    -4.466238405274561E1    -8.203636211651268E-2   -4.638198148999685E1    -8.264822583874869E-2   -4.638303109061773E1    -4.281480334282364E1    -4.825798490800344E1
 2.283988750000000E8    -4.087883002474498E1    -4.424596288507559E1    -8.204366485564100E-2   -4.646011220204537E1    -8.217433406649852E-2   -4.645979148449481E1    -4.284578693373012E1    -4.873344645305563E1
 2.287737500000000E8    -4.087626938608849E1    -4.461620886350306E1    -8.235859517188437E-2   -4.653617916191356E1    -8.184943515912672E-2   -4.653289710284600E1    -4.270683386842669E1    -4.909458421349296E1
 2.291486250000000E8    -4.089824844137767E1    -4.420252395944840E1    -8.246402598074708E-2   -4.661315956798108E1    -8.181720052339693E-2   -4.661086020133610E1    -4.257702864998056E1    -4.901029118517855E1
 2.295235000000000E8    -4.084272683105331E1    -4.423986796399485E1    -8.220641698020030E-2   -4.668324926032879E1    -8.194173762285670E-2   -4.668812471483006E1    -4.274543207612218E1    -4.963635839697232E1
 2.298983750000000E8    -4.087929418572773E1    -4.388012484792764E1    -8.254002967698570E-2   -4.675914633714688E1    -8.181267984568334E-2   -4.676195878775381E1    -4.274719697576712E1    -5.001229807200217E1
 2.302732500000000E8    -4.086262763684029E1    -4.417739769176529E1    -8.277729991505969E-2   -4.683901950844155E1    -8.224020868277969E-2   -4.683900458055113E1    -4.287458000383160E1    -4.924252500168691E1
 2.306481250000000E8    -4.083877615193659E1    -4.500753263478225E1    -8.264181708400439E-2   -4.691431697776860E1    -8.269973517646149E-2   -4.691272604613207E1    -4.291960097532160E1    -4.947772687482572E1
 2.310230000000000E8    -4.090601754254762E1    -4.494296793006395E1    -8.267758621087128E-2   -4.698775734340357E1    -8.330648010590885E-2   -4.699173393869174E1    -4.283452840291897E1    -5.013197914155590E1
 2.313978750000000E8    -4.084313031821222E1    -4.428942653386171E1    -8.322874381486182E-2   -4.706154306640119E1    -8.301148555885624E-2   -4.706723607803809E1    -4.293239843718547E1    -5.065556201220934E1
 2.317727500000000E8    -4.078823450100984E1    -4.555204755373889E1    -8.355047185360034E-2   -4.713748227880507E1    -8.272389139779444E-2   -4.713980395766513E1    -4.266903222874874E1    -5.053289317638609E1
 2.321476250000000E8    -4.076323986453616E1    -4.531220387601061E1    -8.271378786332530E-2   -4.721312242953130E1    -8.347510552972492E-2   -4.721838299199686E1    -4.283146895335246E1    -5.109047116145047E1
 2.325225000000000E8    -4.081736769998550E1    -4.558182620872998E1    -8.310428006719930E-2   -4.728636412693919E1    -8.302698080629092E-2   -4.729244654783125E1    -4.290716043647652E1    -5.076081949540352E1
 2.328973750000000E8    -4.085726044239919E1    -4.543919197139899E1    -8.405872845588702E-2   -4.736444878968884E1    -8.334535772532659E-2   -4.736710628637340E1    -4.278088969954066E1    -5.069907183759673E1
 2.332722500000000E8    -4.094156892727051E1    -4.530168450221830E1    -8.356305719451951E-2   -4.744276528442433E1    -8.328053195928499E-2   -4.744424156932190E1    -4.274584619924039E1    -5.062684160652369E1
 2.336471250000000E8    -4.096685906085506E1    -4.550502150242382E1    -8.367461002163626E-2   -4.751656712897875E1    -8.279230918020530E-2   -4.752331537815375E1    -4.269100866010017E1    -5.016391314754315E1
 2.340220000000000E8    -4.088727577899773E1    -4.657292448252992E1    -8.318590262764659E-2   -4.759219972478490E1    -8.341574577806551E-2   -4.759738525064931E1    -4.263141525531046E1    -5.094381972135276E1
 2.343968750000000E8    -4.100613963558264E1    -4.601725346659935E1    -8.317743688130241E-2   -4.767104829443877E1    -8.342940010497407E-2   -4.767405141415583E1    -4.266076172025527E1    -5.042187636887042E1
 2.347717500000000E8    -4.101858644065178E1    -4.589868732670639E1    -8.339999736948032E-2   -4.774861435464065E1    -8.420948621983881E-2   -4.775194097089148E1    -4.270652793461035E1    -4.981422826914849E1
 2.351466250000000E8    -4.097088446290923E1    -4.634223867176424E1    -8.441595915582745E-2   -4.782640939524570E1    -8.320637629234895E-2   -4.782851429523064E1    -4.294512547902950E1    -4.971785051614810E1
 2.355215000000000E8    -4.099315563650465E1    -4.629578797378033E1    -8.365141020861126E-2   -4.790060829836190E1    -8.378171817408485E-2   -4.790249639762582E1    -4.273718744166053E1    -5.118142803216963E1
 2.358963750000000E8    -4.104052260120597E1    -4.611636842019316E1    -8.338522435302537E-2   -4.797569680339408E1    -8.403202439831337E-2   -4.797861821324091E1    -4.272168907870906E1    -5.095917560497553E1
 2.362712500000000E8    -4.094647244481672E1    -4.636139138150622E1    -8.387284413127513E-2   -4.805340230013024E1    -8.293156380207151E-2   -4.805376813166340E1    -4.280156398564522E1    -5.215590458006069E1
 2.366461250000000E8    -4.092884531748271E1    -4.651465366744448E1    -8.332327165500995E-2   -4.812999286495948E1    -8.426014989406268E-2   -4.813145874751614E1    -4.261531806388842E1    -5.108645055567543E1
 2.370210000000000E8    -4.092699273116744E1    -4.657793670430060E1    -8.359071120241500E-2   -4.820553390722407E1    -8.353275768700126E-2   -4.820863835192495E1    -4.273798178731906E1    -5.178815443812742E1
 2.373958750000000E8    -4.095905399667750E1    -4.694263436048580E1    -8.386991917521289E-2   -4.827986563715297E1    -8.391250743302368E-2   -4.828508261324492E1    -4.266089566753487E1    -5.134896058620730E1
 2.377707500000000E8    -4.087779578705038E1    -4.723035732592438E1    -8.384065049270097E-2   -4.835832606545220E1    -8.390698583229982E-2   -4.835581137544217E1    -4.270616911565641E1    -5.114505957956486E1
 2.381456250000000E8    -4.095279145461316E1    -4.692416161392762E1    -8.398236853915628E-2   -4.843117968804589E1    -8.346340246803564E-2   -4.843452336769464E1    -4.278168005791790E1    -5.135705008889761E1
 2.385205000000000E8    -4.098467634790222E1    -4.734855803701013E1    -8.371211407293418E-2   -4.850676519759173E1    -8.415357317281519E-2   -4.850820128548989E1    -4.252687191189654E1    -5.168587695711714E1
 2.388953750000000E8    -4.092545617826510E1    -4.725801959499129E1    -8.346755870588943E-2   -4.858138277178482E1    -8.491739360516465E-2   -4.858526632015216E1    -4.245082226070338E1    -5.288324975322868E1
 2.392702500000000E8    -4.084194085701394E1    -4.758755396072784E1    -8.367617251393505E-2   -4.865920660587901E1    -8.436002438827327E-2   -4.865843333578270E1    -4.271581361342485E1    -5.309695307048450E1
 2.396451250000000E8    -4.081132865776117E1    -4.803618047379884E1    -8.486353812022057E-2   -4.873483386158530E1    -8.375490355907096E-2   -4.873586590886330E1    -4.263750424565686E1    -5.303517787620429E1
 2.400200000000000E8    -4.080110492694193E1    -4.757044639665451E1    -8.406145801481218E-2   -4.881220403259667E1    -8.431046288630878E-2   -4.881356927939218E1    -4.263546906458971E1    -5.252000990942991E1
 2.403948750000000E8    -4.087758555526011E1    -4.822726875695604E1    -8.404944934919624E-2   -4.888896406755853E1    -8.393782278794121E-2   -4.888665010818077E1    -4.250990049865636E1    -5.225983634933819E1
 2.407697500000000E8    -4.082079084363203E1    -4.837658782233560E1    -8.420798342958005E-2   -4.896162984514828E1    -8.336848066418756E-2   -4.896351461993105E1    -4.270602921830446E1    -5.292611960786746E1
 2.411446250000000E8    -4.085848371238338E1    -4.864562514282326E1    -8.483522887972630E-2   -4.903597823777874E1    -8.343541342198384E-2   -4.903739968464473E1    -4.266773591091923E1    -5.266229757744022E1
 2.415195000000000E8    -4.096385454015714E1    -4.831809755749639E1    -8.359579879636701E-2   -4.911351641675348E1    -8.451034535897811E-2   -4.911356614163130E1    -4.256818710605552E1    -5.311183623039561E1
 2.418943750000000E8    -4.088674149533258E1    -4.856445718008742E1    -8.424241341592725E-2   -4.919307157359974E1    -8.461699536474133E-2   -4.919330675433960E1    -4.253136972935154E1    -5.319311568229638E1
 2.422692500000000E8    -4.100333732149210E1    -4.898830509869605E1    -8.446353371400800E-2   -4.926701228032918E1    -8.472176260865472E-2   -4.926781600647747E1    -4.249535161971124E1    -5.404998206686617E1
 2.426441250000000E8    -4.094002639828388E1    -4.889161275761151E1    -8.414684993911271E-2   -4.934258573639553E1    -8.423875105733666E-2   -4.934239555505696E1    -4.254868287544403E1    -5.458837717880777E1
 2.430190000000000E8    -4.104239805562231E1    -4.918901229950018E1    -8.315819077450709E-2   -4.941642419005963E1    -8.365033606171772E-2   -4.941676584348715E1    -4.267086081661341E1    -5.367340086208530E1
 2.433938750000000E8    -4.106473187291173E1    -4.907117941938365E1    -8.368067335399638E-2   -4.949472428781465E1    -8.347127710330476E-2   -4.949464622449834E1    -4.258765402807987E1    -5.398471302222800E1
 2.437687500000000E8    -4.093075739448722E1    -4.941816338984153E1    -8.433550339980715E-2   -4.957079712701390E1    -8.409632161808651E-2   -4.957478265846918E1    -4.260383263656524E1    -5.270758371144706E1
 2.441436250000000E8    -4.090978286633301E1    -4.861241972132112E1    -8.450015569436627E-2   -4.964726529662568E1    -8.470718142422481E-2   -4.965279685144505E1    -4.266820090240938E1    -5.283359273889982E1
 2.445185000000000E8    -4.096994823127364E1    -4.847308653446525E1    -8.434572669330467E-2   -4.972482621368442E1    -8.507849236149845E-2   -4.972508686821320E1    -4.269137887097941E1    -5.338313280773087E1
 2.448933750000000E8    -4.094186240566770E1    -4.846697190382050E1    -8.428511181790380E-2   -4.979994468446066E1    -8.481886055538562E-2   -4.979987610374438E1    -4.262242699542743E1    -5.342466421587179E1
 2.452682500000000E8    -4.080973482197515E1    -4.921466090287070E1    -8.506469034879607E-2   -4.987567880548141E1    -8.444771640813431E-2   -4.988072318226423E1    -4.273178964229377E1    -5.317453524829126E1
 2.456431250000000E8    -4.094483879595897E1    -4.885766518788335E1    -8.573858185172618E-2   -4.995302638309096E1    -8.443049247198511E-2   -4.995282238979211E1    -4.257294159864205E1    -5.341816868665339E1
 2.460180000000000E8    -4.104081855831339E1    -4.930070948041737E1    -8.553861831300202E-2   -5.002671669422810E1    -8.596156619156628E-2   -5.002794931252013E1    -4.253851934062139E1    -5.315179282831619E1
 2.463928750000000E8    -4.098501953690005E1    -4.916877727333087E1    -8.532884526063411E-2   -5.010204017750169E1    -8.631876918126166E-2   -5.010159247023118E1    -4.260010389159538E1    -5.453548955130982E1
 2.467677500000000E8    -4.092844145734649E1    -5.007678073845230E1    -8.471590419604831E-2   -5.017824322984068E1    -8.518168421867420E-2   -5.018158289423280E1    -4.266427249285599E1    -5.384701750679053E1
 2.471426250000000E8    -4.092719826121785E1    -5.032390209430083E1    -8.479819031010533E-2   -5.025411393084965E1    -8.479622074937596E-2   -5.025675630630384E1    -4.260004771863984E1    -5.458853672959804E1
 2.475175000000000E8    -4.101783775295510E1    -5.045490443507467E1    -8.545164449634740E-2   -5.033039833267284E1    -8.467128585127640E-2   -5.033127869840897E1    -4.255501934310673E1    -5.483391513865858E1
 2.478923750000000E8    -4.098473348483261E1    -5.128441861933143E1    -8.495235551215957E-2   -5.040366113898991E1    -8.436941238097012E-2   -5.040831549849138E1    -4.257034799946067E1    -5.500939620080183E1
 2.482672500000000E8    -4.100483311386074E1    -5.085696219476544E1    -8.474077741979323E-2   -5.048199001269565E1    -8.491451123755266E-2   -5.048249331243171E1    -4.257576616944866E1    -5.549871975021090E1
 2.486421250000000E8    -4.094148532942344E1    -5.056930198745739E1    -8.510717647216350E-2   -5.055429868024211E1    -8.596470453001362E-2   -5.056240391316688E1    -4.253865635134474E1    -5.577953355311531E1
 2.490170000000000E8    -4.094112675680154E1    -5.093378922017349E1    -8.557573393695422E-2   -5.063255803186650E1    -8.521731972018477E-2   -5.063612587368309E1    -4.265500064588750E1    -5.499953762424607E1
 2.493918750000000E8    -4.096022172830497E1    -5.112733725776267E1    -8.528967702299708E-2   -5.071141859720763E1    -8.626321446035860E-2   -5.071254252717711E1    -4.270854516823567E1    -5.517431371075536E1
 2.497667500000000E8    -4.103297473335240E1    -5.142328541912507E1    -8.542162648737069E-2   -5.078973242684070E1    -8.611391338168112E-2   -5.078799461926913E1    -4.256447875259138E1    -5.535648837909825E1
 2.501416250000000E8    -4.099399935866082E1    -5.130387921425309E1    -8.526970218778326E-2   -5.086679985121368E1    -8.540219219195509E-2   -5.086616860914601E1    -4.260340677514599E1    -5.528493526660071E1
 2.505165000000000E8    -4.110463255736218E1    -5.212697002153503E1    -8.538913099648408E-2   -5.093964356278933E1    -8.513026949090360E-2   -5.094170248795536E1    -4.253755195786763E1    -5.522241114829930E1
 2.508913750000000E8    -4.100476471007379E1    -5.097029934528801E1    -8.568173626655329E-2   -5.101587381780253E1    -8.515692082759775E-2   -5.101661725099100E1    -4.254443941059360E1    -5.583220379531465E1
 2.512662500000000E8    -4.099834219985222E1    -5.122815108056680E1    -8.503228700637017E-2   -5.108989205978023E1    -8.584409373918239E-2   -5.109420826034328E1    -4.246571997663361E1    -5.533473760858876E1
 2.516411250000000E8    -4.088734964282146E1    -5.143000811142534E1    -8.527024968122462E-2   -5.116671102680303E1    -8.540777394422033E-2   -5.116754290994614E1    -4.272027732858901E1    -5.569050854432043E1
 2.520160000000000E8    -4.083161429145500E1    -5.187765190503120E1    -8.463081653056989E-2   -5.124199009819944E1    -8.554811346660482E-2   -5.124454662834010E1    -4.259054971857519E1    -5.543158388753188E1
 2.523908750000000E8    -4.090876379230907E1    -5.157933556373101E1    -8.567839954181462E-2   -5.131895740225821E1    -8.527749827741203E-2   -5.132267043738430E1    -4.264239527742696E1    -5.652792964546703E1
 2.527657500000000E8    -4.095445853266092E1    -5.222697252056254E1    -8.634041258385218E-2   -5.139495748005316E1    -8.486558956104873E-2   -5.139988616555159E1    -4.253422496091343E1    -5.647883269454556E1
 2.531406250000000E8    -4.091197821313544E1    -5.176842756880847E1    -8.552412566391360E-2   -5.147270939454842E1    -8.587998677413491E-2   -5.147282688988894E1    -4.248861774943400E1    -5.686776496977652E1
 2.535155000000000E8    -4.100131810720630E1    -5.210502720247694E1    -8.606354073823723E-2   -5.154594762955291E1    -8.599931510827447E-2   -5.154771831552183E1    -4.245364188204246E1    -5.665915007261307E1
 2.538903750000000E8    -4.093944782043246E1    -5.281529614757481E1    -8.561747390909036E-2   -5.162032619338577E1    -8.638211602190340E-2   -5.162681444035159E1    -4.270201905654348E1    -5.559642798315271E1
 2.542652500000000E8    -4.102707013189935E1    -5.277050018280468E1    -8.619111691295568E-2   -5.169794417352757E1    -8.592182030127571E-2   -5.169976510872719E1    -4.269424605949473E1    -5.603060505211663E1
 2.546401250000000E8    -4.092592040168980E1    -5.331934629311154E1    -8.603453410947551E-2   -5.177241469951412E1    -8.578099178136236E-2   -5.177542457166213E1    -4.282893039709576E1    -5.636622016065871E1
 2.550150000000000E8    -4.086435236517185E1    -5.339486362487811E1    -8.680787627450602E-2   -5.184982896419839E1    -8.547340438084802E-2   -5.185243108067930E1    -4.262330508522649E1    -5.627411789494961E1
 2.553898750000000E8    -4.078333633035306E1    -5.271729874508280E1    -8.585268355847837E-2   -5.192626324275439E1    -8.610423636975230E-2   -5.193028884478127E1    -4.261703816648031E1    -5.659557994287874E1
 2.557647500000000E8    -4.082422651341944E1    -5.351640548035282E1    -8.595934848897106E-2   -5.199984345926436E1    -8.646504354360618E-2   -5.200614488602896E1    -4.263198578337052E1    -5.708975188610424E1
 2.561396250000000E8    -4.085805335801777E1    -5.282061890354129E1    -8.634509334792193E-2   -5.207832303541532E1    -8.562921359840804E-2   -5.207700409226425E1    -4.264186766367264E1    -5.785704745648795E1
 2.565145000000000E8    -4.088788295979440E1    -5.290480867469563E1    -8.604261638849109E-2   -5.215068917116640E1    -8.654301888923119E-2   -5.215433348857643E1    -4.249644344658941E1    -5.790413819208460E1
 2.568893750000000E8    -4.089556262029242E1    -5.301050720830887E1    -8.582285662813244E-2   -5.222603837073498E1    -8.718508162564717E-2   -5.222913024143780E1    -4.254942036819808E1    -5.782972676238114E1
 2.572642500000000E8    -4.086845443855780E1    -5.368205388292118E1    -8.528249839223237E-2   -5.230078362807031E1    -8.598061072353508E-2   -5.230672403386250E1    -4.272555506560305E1    -5.834355474513032E1
 2.576391250000000E8    -4.091929278629025E1    -5.494225643303426E1    -8.575578845443746E-2   -5.237830917065084E1    -8.600471958721898E-2   -5.238277101317875E1    -4.283428534956573E1    -5.719393768178956E1
 2.580140000000000E8    -4.112333053379138E1    -5.409568658039031E1    -8.636958582304807E-2   -5.245733573745393E1    -8.566592161555397E-2   -5.245679529927028E1    -4.273011180857460E1    -5.823161734139946E1
 2.583888750000000E8    -4.093858297196276E1    -5.384742547131690E1    -8.611604609816495E-2   -5.253050637094571E1    -8.618147128635810E-2   -5.253559567763721E1    -4.264800239422729E1    -5.801433916238249E1
 2.587637500000000E8    -4.090304051408886E1    -5.429807124955205E1    -8.580354111613822E-2   -5.260814670579025E1    -8.688998661088758E-2   -5.261059774634500E1    -4.265610659381237E1    -5.829423438033511E1
 2.591386250000000E8    -4.090628568558443E1    -5.419320290367796E1    -8.612052116361908E-2   -5.268450845295230E1    -8.741446169849981E-2   -5.268859039092393E1    -4.243618915081964E1    -5.914593697076686E1
 2.595135000000000E8    -4.096362463216329E1    -5.492521529256581E1    -8.575490407037212E-2   -5.276091316208905E1    -8.629720371338742E-2   -5.276554857950617E1    -4.242426385943291E1    -5.895554578441920E1
 2.598883750000000E8    -4.096163262939187E1    -5.514477886972487E1    -8.643099402407897E-2   -5.283987160012068E1    -8.591532042197576E-2   -5.284264667841021E1    -4.256354259722906E1    -5.887344876714186E1
 2.602632500000000E8    -4.098629292681381E1    -5.526246830624285E1    -8.660564345801924E-2   -5.291677053431758E1    -8.668877594333216E-2   -5.291789191179344E1    -4.260460486753573E1    -5.834249158994438E1
 2.606381250000000E8    -4.094798330976926E1    -5.516003158976139E1    -8.633337741090705E-2   -5.299253641257528E1    -8.706277981444301E-2   -5.299241553172329E1    -4.258787547058493E1    -5.811091781264135E1
 2.610130000000000E8    -4.091211263157113E1    -5.502648282228056E1    -8.694608682962222E-2   -5.306723363992400E1    -8.676034072930189E-2   -5.306796709851087E1    -4.255798250317626E1    -5.919554518298042E1
 2.613878750000000E8    -4.100218181098057E1    -5.537355249840584E1    -8.685005257731612E-2   -5.314420100810570E1    -8.721532828895981E-2   -5.314395924499576E1    -4.248921969679195E1    -5.946957983276354E1
 2.617627500000000E8    -4.095061395689336E1    -5.503742508745287E1    -8.680232251022427E-2   -5.321955926138954E1    -8.738851114284479E-2   -5.322233647991109E1    -4.249351011847305E1    -5.906449982629222E1
 2.621376250000000E8    -4.099343128543167E1    -5.466020904030667E1    -8.744361406644933E-2   -5.329458185287303E1    -8.756706860924210E-2   -5.329687043864976E1    -4.245836972824662E1    -5.943154566382341E1
 2.625125000000000E8    -4.103165278635161E1    -5.528518450527420E1    -8.733463235702241E-2   -5.337066185937190E1    -8.785420285762631E-2   -5.336939021942526E1    -4.244631562428463E1    -5.975727527180221E1
 2.628873750000000E8    -4.103459597968176E1    -5.534072324163795E1    -8.707793524074964E-2   -5.344148712707655E1    -8.750306348942923E-2   -5.344688755942563E1    -4.262691845446959E1    -6.085296468608241E1
 2.632622500000000E8    -4.103037369429717E1    -5.569058755319985E1    -8.737619949216247E-2   -5.352345430268805E1    -8.740545706954952E-2   -5.352098752003170E1    -4.267527008935392E1    -6.083254134784550E1
 2.636371250000000E8    -4.098037943354504E1    -5.616992999440517E1    -8.659777375843980E-2   -5.359884582106574E1    -8.781386943803501E-2   -5.360033884949219E1    -4.249555573231589E1    -6.052371550425045E1
 2.640120000000000E8    -4.092874843793483E1    -5.683468140504181E1    -8.632742109125277E-2   -5.367486058778609E1    -8.838965547171163E-2   -5.367479359669218E1    -4.247376478454101E1    -6.022761845243807E1
 2.643868750000000E8    -4.098327760052628E1    -5.636879388839449E1    -8.642035963300500E-2   -5.375089941280817E1    -8.789357527830978E-2   -5.375105283493172E1    -4.256360783265208E1    -6.046038271656855E1
 2.647617500000000E8    -4.098243417880497E1    -5.716339979459985E1    -8.715700953499320E-2   -5.382533900993059E1    -8.699151658480968E-2   -5.382663350039304E1    -4.240938533484044E1    -6.021328216561395E1
 2.651366250000000E8    -4.092388507811124E1    -5.708786906684016E1    -8.657236759455167E-2   -5.389843619326538E1    -8.717545408555494E-2   -5.390255546408208E1    -4.258673320725798E1    -6.095102577113781E1
 2.655115000000000E8    -4.081896383984839E1    -5.713243323929333E1    -8.694682556629660E-2   -5.397454132361896E1    -8.761052081224852E-2   -5.397707921049324E1    -4.251827048318522E1    -6.051529350127797E1
 2.658863750000000E8    -4.087485505280112E1    -5.747714942254012E1    -8.645407487737480E-2   -5.405159867180691E1    -8.878210384444099E-2   -5.405054717775659E1    -4.251799467857533E1    -6.033692227608556E1
 2.662612500000000E8    -4.095451701895909E1    -5.678547013591192E1    -8.710191347706424E-2   -5.412611654268419E1    -8.808591768452820E-2   -5.412864393067071E1    -4.251124646223700E1    -5.988166767081036E1
 2.666361250000000E8    -4.101373771524621E1    -5.813477007100554E1    -8.681685866039740E-2   -5.420691198758530E1    -8.728735083229444E-2   -5.420703791845148E1    -4.250734884674176E1    -6.031548774025111E1
 2.670110000000000E8    -4.102265145341243E1    -5.755360509108718E1    -8.649293659872208E-2   -5.428094334274157E1    -8.753731684058831E-2   -5.428654079437839E1    -4.260407178456827E1    -6.105049190902721E1
 2.673858750000000E8    -4.104275683222162E1    -5.768644060125130E1    -8.657372446715969E-2   -5.436047671829973E1    -8.797658724559997E-2   -5.436029737862423E1    -4.260040820621950E1    -6.077923004971269E1
 2.677607500000000E8    -4.100585741237768E1    -5.803921669131442E1    -8.785572875750013E-2   -5.443437321856250E1    -8.799812371010997E-2   -5.443605747084842E1    -4.237588809977792E1    -6.104790457159280E1
 2.681356250000000E8    -4.105735365518356E1    -5.826483447800086E1    -8.674063787631088E-2   -5.450878107089206E1    -8.829615885943032E-2   -5.451033776045330E1    -4.241517011496612E1    -6.166708626015717E1
 2.685105000000000E8    -4.100535183921316E1    -5.831745912192363E1    -8.644873628885810E-2   -5.458406656968383E1    -8.802758435953863E-2   -5.458732761576317E1    -4.247890630068166E1    -6.199713662931578E1
 2.688853750000000E8    -4.095273597175417E1    -5.840472400437488E1    -8.673346005356730E-2   -5.465909992412597E1    -8.796152682431085E-2   -5.466354663024278E1    -4.244459874013376E1    -6.255034017328632E1
 2.692602500000000E8    -4.100648295932292E1    -5.810682575661450E1    -8.801375252922489E-2   -5.473552128889192E1    -8.828039279787206E-2   -5.473697532374051E1    -4.242094752823264E1    -6.192319029041440E1
 2.696351250000000E8    -4.105536271035037E1    -5.802868083052863E1    -8.816733656963840E-2   -5.481224218286270E1    -8.907113677483269E-2   -5.481137099872848E1    -4.250597199984917E1    -6.244956981098838E1
 2.700100000000000E8    -4.099630790836095E1    -5.873786893740048E1    -8.826229633390638E-2   -5.488721363033635E1    -8.916871829327863E-2   -5.488959519822455E1    -4.266394039067049E1    -6.189967744047443E1
 2.703848750000000E8    -4.102905150836086E1    -5.846583660372752E1    -8.728155174641269E-2   -5.496457083910421E1    -8.932873261482800E-2   -5.496554430475096E1    -4.255090762026918E1    -6.288595454034945E1
 2.707597500000000E8    -4.096366349051765E1    -5.870871171760737E1    -8.727553636837740E-2   -5.503983316236256E1    -8.931546643560459E-2   -5.504154524409375E1    -4.259650746985918E1    -6.232720247851044E1
 2.711346250000000E8    -4.096489172622961E1    -5.957158136920879E1    -8.782384470022990E-2   -5.511520466696619E1    -8.883555495914969E-2   -5.511780066453679E1    -4.253113117786419E1    -6.236985530843897E1
 2.715095000000000E8    -4.089846101253212E1    -5.902928416542966E1    -8.790757951775349E-2   -5.518983395515770E1    -8.941882558851490E-2   -5.519425058830071E1    -4.250861876964851E1    -6.263663344903518E1
 2.718843750000000E8    -4.087942783674392E1    -5.860723053606100E1    -8.768226245744939E-2   -5.526756493332918E1    -8.908157828806984E-2   -5.526916682494522E1    -4.260864711611711E1    -6.394708790802592E1
 2.722592500000000E8    -4.092805114726080E1    -5.952068115180990E1    -8.739775649461989E-2   -5.534349481567462E1    -8.879217540760460E-2   -5.534596569408603E1    -4.265773536348040E1    -6.404441067973835E1
 2.726341250000000E8    -4.101590505263416E1    -5.954292175694621E1    -8.783828110897451E-2   -5.541777430692098E1    -8.897490678975326E-2   -5.542181545272159E1    -4.248828704782862E1    -6.362456715136478E1
 2.730090000000000E8    -4.098907773099464E1    -5.937532048646995E1    -8.804202361805571E-2   -5.549284245265076E1    -8.932561602598468E-2   -5.549900415918879E1    -4.253532554394380E1    -6.445880862840320E1
 2.733838750000000E8    -4.094873860148176E1    -5.955930511597099E1    -8.797277553718923E-2   -5.557072792456773E1    -8.875096639944111E-2   -5.557674114839300E1    -4.256898860178636E1    -6.476546879710504E1
 2.737587500000000E8    -4.088623621206467E1    -6.045624401594640E1    -8.803347234035418E-2   -5.564694851719999E1    -8.893352585372993E-2   -5.565174736387093E1    -4.263664215156599E1    -6.395575533251006E1
 2.741336250000000E8    -4.092020535206829E1    -5.974197792408569E1    -8.850859226698729E-2   -5.572468555646831E1    -8.847861893362625E-2   -5.572498748479903E1    -4.247405209911175E1    -6.466089405686380E1
 2.745085000000000E8    -4.097897540787102E1    -6.055985708974605E1    -8.755628360873316E-2   -5.579844385077351E1    -8.986129579153110E-2   -5.580097741777152E1    -4.240084217420528E1    -6.430551571402638E1
 2.748833750000000E8    -4.107673428384644E1    -6.077138417577664E1    -8.861197721719402E-2   -5.587346404147568E1    -8.882500405842932E-2   -5.587688179931383E1    -4.238282556362287E1    -6.535726148228393E1
 2.752582500000000E8    -4.108213798398131E1    -6.114086722238633E1    -8.753776760486998E-2   -5.595001828119921E1    -8.899672318362668E-2   -5.595340697596609E1    -4.246971369050254E1    -6.525960634956085E1
 2.756331250000000E8    -4.102065650768206E1    -6.138146490019874E1    -8.772610381230588E-2   -5.602736754222707E1    -8.839900168837671E-2   -5.603037450007734E1    -4.239015800417459E1    -6.454593029236352E1
 2.760080000000000E8    -4.095036180431165E1    -6.095480225817565E1    -8.667476586915757E-2   -5.610041669754813E1    -8.870797623082605E-2   -5.610367692381826E1    -4.252978231214617E1    -6.392381750253396E1
 2.763828750000000E8    -4.098593487054455E1    -6.057917961286404E1    -8.810786571937761E-2   -5.617666662899193E1    -8.858899390869010E-2   -5.618057924272289E1    -4.259486682678039E1    -6.518678060678749E1
 2.767577500000000E8    -4.081968003117537E1    -6.140130725093400E1    -8.796546659797500E-2   -5.625289975710217E1    -8.929922228956300E-2   -5.626065194155451E1    -4.253470774562801E1    -6.615668246115263E1
 2.771326250000000E8    -4.077668362698449E1    -6.170635153338318E1    -8.836912937974438E-2   -5.633272683619756E1    -9.003334915429032E-2   -5.633610048137959E1    -4.251369688921628E1    -6.631332467035170E1
 2.775075000000000E8    -4.085220475103447E1    -6.175900643547541E1    -8.880527876777924E-2   -5.640528108083417E1    -8.877533669120530E-2   -5.641057466155762E1    -4.238383879202005E1    -6.597135366479128E1
 2.778823750000000E8    -4.075320158749938E1    -6.121551468433727E1    -8.737979373415766E-2   -5.648212317058051E1    -8.882965549107991E-2   -5.648398174489064E1    -4.234756740123059E1    -6.706176277763285E1
 2.782572500000000E8    -4.074392830106159E1    -6.206959417899330E1    -8.794269536009205E-2   -5.655520949406493E1    -8.881513464153962E-2   -5.655701177730788E1    -4.244335212853095E1    -6.716038603755658E1
 2.786321250000000E8    -4.073034458744630E1    -6.235834612528008E1    -8.869581307095155E-2   -5.663601625107736E1    -8.894649707599402E-2   -5.663635107897919E1    -4.258032233738751E1    -6.681818983151713E1
 2.790070000000000E8    -4.083135095348560E1    -6.252421320137226E1    -8.876008698299610E-2   -5.671585965448895E1    -8.920045741695584E-2   -5.671807043581369E1    -4.240281008259419E1    -6.727233686878081E1
 2.793818750000000E8    -4.079246984362962E1    -6.310819815986694E1    -8.839296342380654E-2   -5.678772429576544E1    -8.966710204095375E-2   -5.679412868035909E1    -4.258359838760057E1    -6.617974449598096E1
 2.797567500000000E8    -4.076213891065478E1    -6.376163928493272E1    -8.873322907983638E-2   -5.686377748544210E1    -8.826344421280918E-2   -5.686582909012858E1    -4.253926547083969E1    -6.629249202619698E1
 2.801316250000000E8    -4.073363850674841E1    -6.322738034311645E1    -8.804919102726991E-2   -5.694122677431203E1    -8.843376031827929E-2   -5.694476753313680E1    -4.258591329454124E1    -6.716774667741272E1
 2.805065000000000E8    -4.084282668749999E1    -6.321661045941374E1    -8.856534087521292E-2   -5.701544886132152E1    -8.825079970138947E-2   -5.701781090507951E1    -4.255338624335398E1    -6.789276290177418E1
 2.808813750000000E8    -4.073681705430704E1    -6.384681355490199E1    -8.843159895732630E-2   -5.709207495089694E1    -8.830659579383224E-2   -5.709681467605784E1    -4.264587859909668E1    -6.804037804716795E1
 2.812562500000000E8    -4.086862340811307E1    -6.351192304966533E1    -8.774708804946005E-2   -5.716835464948647E1    -8.928539714956439E-2   -5.717125910773641E1    -4.251226869154564E1    -6.834551108305878E1
 2.816311250000000E8    -4.086553063470484E1    -6.339046275190563E1    -8.760144338158679E-2   -5.724563379340658E1    -8.976325676047286E-2   -5.724584495874589E1    -4.241874433988848E1    -6.844226875503455E1
 2.820060000000000E8    -4.079065981173468E1    -6.325586391196792E1    -8.840041524454448E-2   -5.732171454868902E1    -8.932268790446792E-2   -5.732467422190486E1    -4.240038901009147E1    -6.885998559896072E1
 2.823808750000000E8    -4.077046292292258E1    -6.417557128593620E1    -8.809567519395756E-2   -5.740172060423706E1    -8.954585263049790E-2   -5.740276892522531E1    -4.254674893481734E1    -6.861654964286966E1
 2.827557500000000E8    -4.079991742089668E1    -6.527747014283715E1    -8.869825463898029E-2   -5.747482768862496E1    -8.946482860180785E-2   -5.747755362347834E1    -4.264960563059650E1    -6.880578635693327E1
 2.831306250000000E8    -4.068377509994360E1    -6.554654605141816E1    -8.861059404777077E-2   -5.755158850029930E1    -8.990386133991156E-2   -5.755444027939115E1    -4.270853148932518E1    -6.845968301731460E1
 2.835055000000000E8    -4.076801944160802E1    -6.538011240727558E1    -8.917139595912497E-2   -5.762579779832871E1    -8.997774321091849E-2   -5.763208758611000E1    -4.262744900606761E1    -6.892089765465019E1
 2.838803750000000E8    -4.080380043302707E1    -6.478959484120314E1    -9.062573905290419E-2   -5.770166585641239E1    -9.036607403669203E-2   -5.770556809719670E1    -4.243178107737972E1    -6.901535523119311E1
 2.842552500000000E8    -4.081906960899638E1    -6.553726153697556E1    -9.000501773630076E-2   -5.777341851665041E1    -9.001057203066139E-2   -5.778035584192337E1    -4.258588742262793E1    -6.935624758638440E1
 2.846301250000000E8    -4.073462532069762E1    -6.582942926701925E1    -8.848872533471686E-2   -5.785238584904703E1    -9.053790402450176E-2   -5.785601539397999E1    -4.266007065060595E1    -7.005472830833340E1
 2.850050000000000E8    -4.084899998866315E1    -6.609133934911739E1    -8.812010018315020E-2   -5.792711218495126E1    -8.985220926144394E-2   -5.793280301139254E1    -4.262143102655561E1    -7.011915292026940E1
 2.853798750000000E8    -4.080141651860857E1    -6.675293058478884E1    -8.896781066639395E-2   -5.800363143763178E1    -8.958090019695664E-2   -5.800647766722525E1    -4.258759943221282E1    -7.029446922559993E1
 2.857547500000000E8    -4.078396999415924E1    -6.665255919978179E1    -8.998246979198535E-2   -5.807927395807801E1    -8.960018517505013E-2   -5.808297400480235E1    -4.256058588229840E1    -7.037248849377066E1
 2.861296250000000E8    -4.073437045731864E1    -6.706151273087593E1    -8.986353156368156E-2   -5.815691600633568E1    -9.078058976813910E-2   -5.815376327764204E1    -4.265957406691801E1    -7.024242907885213E1
 2.865045000000000E8    -4.072540130958770E1    -6.688817899800526E1    -8.960508628732905E-2   -5.822907102595001E1    -8.998815624003383E-2   -5.823471769781440E1    -4.259745468813978E1    -7.111538365017253E1
 2.868793750000000E8    -4.074808655379656E1    -6.679369743917502E1    -8.954876157619956E-2   -5.830453392308640E1    -9.048933010205742E-2   -5.830657635844645E1    -4.257931565910192E1    -7.103635048131855E1
 2.872542500000000E8    -4.080136287610677E1    -6.737755010239655E1    -8.971790382439224E-2   -5.838029121031622E1    -9.079971714777813E-2   -5.838495200221723E1    -4.255604373831907E1    -7.053305761481430E1
 2.876291250000000E8    -4.078489975546833E1    -6.676592793711580E1    -8.930610014726292E-2   -5.845837836508413E1    -8.997289295381680E-2   -5.846425494182363E1    -4.267942456885767E1    -7.068202589199703E1
 2.880040000000000E8    -4.077858692449976E1    -6.684454145559333E1    -8.966869602324110E-2   -5.853420179339103E1    -8.947172723110700E-2   -5.853842308043442E1    -4.270405326031569E1    -7.091245669287932E1
 2.883788750000000E8    -4.075378406427303E1    -6.731390660294346E1    -8.951128208823733E-2   -5.861072760829586E1    -9.047824412925572E-2   -5.861541986976529E1    -4.265136887158245E1    -7.135723273685500E1
 2.887537500000000E8    -4.071966931827126E1    -6.750596685404849E1    -9.012596949962140E-2   -5.868587050969149E1    -9.051042284516454E-2   -5.869093887410345E1    -4.279868592985097E1    -7.148377465195723E1
 2.891286250000000E8    -4.071835109709973E1    -6.759924935701083E1    -8.993911439646413E-2   -5.876268792213642E1    -9.006186818751566E-2   -5.877192576172346E1    -4.251050807589450E1    -7.169438702509055E1
 2.895035000000000E8    -4.068898078968923E1    -6.797877912420110E1    -8.914494782641816E-2   -5.883802098039312E1    -9.013191374210122E-2   -5.884653109576755E1    -4.243793773204122E1    -7.269935380352656E1
 2.898783750000000E8    -4.074596872851724E1    -6.787086315488853E1    -8.971948876035879E-2   -5.891879689126291E1    -9.063742300918247E-2   -5.891901494141734E1    -4.259865525596521E1    -7.242601537392233E1
 2.902532500000000E8    -4.073035191931267E1    -6.808288424229021E1    -9.042267161605672E-2   -5.899015166901635E1    -9.081855713566796E-2   -5.899879816048848E1    -4.263246614133217E1    -7.191008567998509E1
 2.906281250000000E8    -4.067555253414884E1    -6.861099249550665E1    -9.005389522254159E-2   -5.906737163991778E1    -9.013226938579597E-2   -5.907341986889045E1    -4.261844394481068E1    -7.309662727620072E1
 2.910030000000000E8    -4.073722036242521E1    -6.832793821463639E1    -9.005434176013061E-2   -5.914211598057099E1    -9.086429536676364E-2   -5.915087794846026E1    -4.252772407321211E1    -7.338688542123946E1
 2.913778750000000E8    -4.066956141804586E1    -6.861789005866335E1    -9.062254544072440E-2   -5.922110011122856E1    -9.027617814863995E-2   -5.922785437180936E1    -4.259037010427101E1    -7.301680596970822E1
 2.917527500000000E8    -4.053947261458917E1    -6.901639340808237E1    -8.985768176255404E-2   -5.930224412280280E1    -9.052095109712269E-2   -5.930282716716783E1    -4.266802762666018E1    -7.372334492958095E1
 2.921276250000000E8    -4.055097333402996E1    -6.879687821040946E1    -8.954551539691435E-2   -5.937425796592547E1    -9.042775299055414E-2   -5.938193117626690E1    -4.270649633837490E1    -7.342121421500065E1
 2.925025000000000E8    -4.058005780125123E1    -6.980730319725770E1    -8.930228660181161E-2   -5.945035605600915E1    -9.078289946588239E-2   -5.946043342029865E1    -4.274788177355396E1    -7.350345394962612E1
 2.928773750000000E8    -4.054662679372104E1    -6.983191118078219E1    -8.896755625481297E-2   -5.952793296937492E1    -9.032928866844259E-2   -5.953836276730507E1    -4.279791165611076E1    -7.389430463841597E1
 2.932522500000000E8    -4.072901916317888E1    -6.993296543649161E1    -8.985181850475335E-2   -5.960365513438950E1    -9.035914768014948E-2   -5.961631346979998E1    -4.270413362798539E1    -7.405449769142001E1
 2.936271250000000E8    -4.072832795081929E1    -7.034813177666894E1    -9.037548873326665E-2   -5.967682829030698E1    -9.097615135869383E-2   -5.969174840249098E1    -4.277498152540110E1    -7.464078904440771E1
 2.940020000000000E8    -4.069976032425171E1    -7.007106230883933E1    -9.014510585254502E-2   -5.975376740428050E1    -9.032058923509179E-2   -5.976758428343936E1    -4.269338154737579E1    -7.525179795811420E1
 2.943768750000000E8    -4.057579998218743E1    -7.070749222176235E1    -9.021607857024340E-2   -5.982831707252771E1    -9.105811890685010E-2   -5.984051654741261E1    -4.275825973420099E1    -7.559567263978413E1
 2.947517500000000E8    -4.067077512834247E1    -7.046270958612335E1    -9.076192748012746E-2   -5.990212306363432E1    -9.110438164678160E-2   -5.991726810884740E1    -4.276720738441785E1    -7.593346845627043E1
 2.951266250000000E8    -4.060325215448405E1    -7.061518889240982E1    -9.039406064311974E-2   -5.997448242452548E1    -9.106363935717415E-2   -5.999120609500105E1    -4.279116405354436E1    -7.636722367924149E1
 2.955015000000000E8    -4.066988564694695E1    -7.128429861525242E1    -9.000276895255724E-2   -6.005407027708172E1    -9.075245401721854E-2   -6.006470556014874E1    -4.277792748077903E1    -7.616626914674563E1
 2.958763750000000E8    -4.067040055007417E1    -7.055553939022485E1    -8.967698864147075E-2   -6.012973098106334E1    -9.099620049757902E-2   -6.014235701316315E1    -4.297639485704869E1    -7.648697957704606E1
 2.962512500000000E8    -4.075768196214330E1    -7.151675731630047E1    -9.007512134315190E-2   -6.020502043815109E1    -9.100651654628789E-2   -6.021992326864864E1    -4.271732586147615E1    -7.605407500584187E1
 2.966261250000000E8    -4.060986020378068E1    -7.134490434501991E1    -9.032196212767918E-2   -6.028062144911252E1    -9.130053186713818E-2   -6.029572829578295E1    -4.277177889343890E1    -7.590486017728206E1
 2.970010000000000E8    -4.058786840726603E1    -7.118507921122171E1    -9.149819110356242E-2   -6.035784885871740E1    -9.003161177365188E-2   -6.036864112160582E1    -4.283685764467567E1    -7.666982729785056E1
 2.973758750000000E8    -4.064579327456929E1    -7.167232321459929E1    -9.052460009423195E-2   -6.043005205541463E1    -9.054111357509004E-2   -6.044707402929250E1    -4.291777515694039E1    -7.662580261299908E1
 2.977507500000000E8    -4.062859582758765E1    -7.233516666228539E1    -9.033520377236859E-2   -6.050904063011370E1    -9.073787743014369E-2   -6.052529397772015E1    -4.261382261637937E1    -7.614826542095055E1
 2.981256250000000E8    -4.058368358028215E1    -7.253479027945271E1    -9.138930718071316E-2   -6.058589895803937E1    -9.113820469421489E-2   -6.060136797654371E1    -4.277762901401913E1    -7.662961881166798E1
 2.985005000000000E8    -4.078926417041295E1    -7.223873056336593E1    -9.023285000741786E-2   -6.066261444035646E1    -9.138738007019029E-2   -6.067916955966053E1    -4.258761197006158E1    -7.713320919875081E1
 2.988753750000000E8    -4.076204713037065E1    -7.168618937786160E1    -9.131501634060268E-2   -6.073861758278247E1    -9.124308364510213E-2   -6.075807344900366E1    -4.275586984186350E1    -7.745388081311954E1
 2.992502500000000E8    -4.056696888660143E1    -7.266142726312115E1    -9.120473486304863E-2   -6.081800632645808E1    -9.150821138001203E-2   -6.083388515490841E1    -4.271965986218284E1    -7.720663277115888E1
 2.996251250000000E8    -4.055342329070661E1    -7.331265395016666E1    -9.120169964280453E-2   -6.089114596015080E1    -9.083650591733997E-2   -6.090945532355234E1    -4.273973875656690E1    -7.752422399388847E1
 3.000000000000000E8    -4.056898987451865E1    -7.425827219482271E1    -9.108191374608757E-2   -6.096215776005469E1    -9.156888405089784E-2   -6.098692762037926E1    -4.266626243291603E1    -7.713341197483388E1
